  0: 
  0:      Program PWSCF v.7.3.1 starts on 17Sep2025 at 23:48:45 
  0: 
  0:      This program is part of the open-source Quantum ESPRESSO suite
  0:      for quantum simulation of materials; please cite
  0:          "P. Giannozzi et al., J. Phys.:Condens. Matter 21 395502 (2009);
  0:          "P. Giannozzi et al., J. Phys.:Condens. Matter 29 465901 (2017);
  0:          "P. Giannozzi et al., J. Chem. Phys. 152 154105 (2020);
  0:           URL http://www.quantum-espresso.org", 
  0:      in publications or presentations arising from this work. More details at
  0:      http://www.quantum-espresso.org/quote
  0: 
  0:      Parallel version (MPI & OpenMP), running on     192 processor cores
  0:      Number of MPI processes:               192
  0:      Threads/MPI process:                     1
  0: 
  0:      MPI processes distributed on     1 nodes
  0:      709727 MiB available memory on the printing compute node when the environment starts
  0: 
  0:      Reading input from bands.inp
  0: 
  0:      Current dimensions of program PWSCF are:
  0:      Max number of different atomic species (ntypx) = 10
  0:      Max number of k-points (npk) =  40000
  0:      Max angular momentum in pseudopotentials (lmaxx) =  4
  0: 
  0:      Atomic positions and unit cell read from directory:
  0:      ./tmp/iba_pbbr3.save/
  0: 
  0:      Message from routine setup:
  0:      using ibrav=0 with symmetry is DISCOURAGED, use correct ibrav instead
  0: 
  0:      K-points division:     npool     =       6
  0:      R & G space division:  proc/nbgrp/npool/nimage =      32
  0:      Subspace diagonalization in iterative solution of the eigenvalue problem:
  0:      one sub-group per band group will be used
  0:      scalapack distributed-memory algorithm (size of sub-group:  2*  2 procs)
  0: 
  0: 
  0:      Parallelization info
  0:      --------------------
  0:      sticks:   dense  smooth     PW     G-vecs:    dense   smooth      PW
  0:      Min         209     209     56                13152    13152    1819
  0:      Max         210     210     57                13156    13156    1822
  0:      Sum        6691    6691   1795               420899   420899   58255
  0: 
  0:      Using Slab Decomposition
  0: 
  0: 
  0: 
  0:      bravais-lattice index     =            0
  0:      lattice parameter (alat)  =      14.8228  a.u.
  0:      unit-cell volume          =    3648.1345 (a.u.)^3
  0:      number of atoms/cell      =           36
  0:      number of atomic types    =            5
  0:      number of electrons       =       136.00
  0:      number of Kohn-Sham states=          200
  0:      kinetic-energy cutoff     =      90.0000  Ry
  0:      charge density cutoff     =     360.0000  Ry
  0:      Exchange-correlation= PBE
  0:                            (   1   4   3   4   0   0   0)
  0:      Non magnetic calculation with spin-orbit
  0: 
  0: 
  0:      celldm(1)=  14.822823  celldm(2)=   0.000000  celldm(3)=   0.000000
  0:      celldm(4)=   0.000000  celldm(5)=   0.000000  celldm(6)=   0.000000
  0: 
  0:      crystal axes: (cart. coord. in units of alat)
  0:                a(1) = (   0.904112   0.000000  -0.427295 )  
  0:                a(2) = (   0.000000   1.061882   0.000000 )  
  0:                a(3) = (   0.000000   0.000000   1.166754 )  
  0: 
  0:      reciprocal axes: (cart. coord. in units 2 pi/alat)
  0:                b(1) = (  1.106057  0.000000  0.000000 )  
  0:                b(2) = ( -0.000000  0.941724  0.000000 )  
  0:                b(3) = (  0.405066 -0.000000  0.857079 )  
  0: 
  0: 
  0:      PseudoPot. # 1 for Br read from file:
  0:      /lus/home/CT9/c1507682/kshirsagar/pseudos/dojo_pbe/nc-fr-04_pbe_standard_upf/Br.upf
  0:      MD5 check sum: 41f672ce76ec6f6480a05aabe46aac99
  0:      Pseudo is Norm-conserving + core correction, Zval =  7.0
  0:      Generated using ONCVPSP code by D. R. Hamann
  0:      Using radial grid of 1110 points, 10 beta functions with: 
  0:                 l(1) =   0
  0:                 l(2) =   0
  0:                 l(3) =   1
  0:                 l(4) =   1
  0:                 l(5) =   1
  0:                 l(6) =   1
  0:                 l(7) =   2
  0:                 l(8) =   2
  0:                 l(9) =   2
  0:                l(10) =   2
  0: 
  0:      PseudoPot. # 2 for C  read from file:
  0:      /lus/home/CT9/c1507682/kshirsagar/pseudos/dojo_pbe/nc-fr-04_pbe_standard_upf/C.upf
  0:      MD5 check sum: d80ec9912146af6c4c1760317d1f95e9
  0:      Pseudo is Norm-conserving + core correction, Zval =  4.0
  0:      Generated using ONCVPSP code by D. R. Hamann
  0:      Using radial grid of 1248 points,  6 beta functions with: 
  0:                 l(1) =   0
  0:                 l(2) =   0
  0:                 l(3) =   1
  0:                 l(4) =   1
  0:                 l(5) =   1
  0:                 l(6) =   1
  0: 
  0:      PseudoPot. # 3 for H  read from file:
  0:      /lus/home/CT9/c1507682/kshirsagar/pseudos/dojo_pbe/nc-fr-04_pbe_standard_upf/H.upf
  0:      MD5 check sum: 418cee52d0c413ae40802e6cc37ab9e3
  0:      Pseudo is Norm-conserving, Zval =  1.0
  0:      Generated using ONCVPSP code by D. R. Hamann
  0:      Using radial grid of 1166 points,  4 beta functions with: 
  0:                 l(1) =   0
  0:                 l(2) =   0
  0:                 l(3) =   1
  0:                 l(4) =   1
  0: 
  0:      PseudoPot. # 4 for N  read from file:
  0:      /lus/home/CT9/c1507682/kshirsagar/pseudos/dojo_pbe/nc-fr-04_pbe_standard_upf/N.upf
  0:      MD5 check sum: ff7f9f91e4136e6855b4906c31c1cc72
  0:      Pseudo is Norm-conserving + core correction, Zval =  5.0
  0:      Generated using ONCVPSP code by D. R. Hamann
  0:      Using radial grid of 1058 points,  6 beta functions with: 
  0:                 l(1) =   0
  0:                 l(2) =   0
  0:                 l(3) =   1
  0:                 l(4) =   1
  0:                 l(5) =   1
  0:                 l(6) =   1
  0: 
  0:      PseudoPot. # 5 for Pb read from file:
  0:      /lus/home/CT9/c1507682/kshirsagar/pseudos/dojo_pbe/nc-fr-04_pbe_standard_upf/Pb.upf
  0:      MD5 check sum: 73abbbd201951038fc1bdacebad68d2f
  0:      Pseudo is Norm-conserving + core correction, Zval = 14.0
  0:      Generated using ONCVPSP code by D. R. Hamann
  0:      Using radial grid of 1782 points, 10 beta functions with: 
  0:                 l(1) =   0
  0:                 l(2) =   0
  0:                 l(3) =   1
  0:                 l(4) =   1
  0:                 l(5) =   1
  0:                 l(6) =   1
  0:                 l(7) =   2
  0:                 l(8) =   2
  0:                 l(9) =   2
  0:                l(10) =   2
  0: 
  0:      atomic species   valence    mass     pseudopotential
  0:      Br                7.00    79.90400     Br( 1.00)
  0:      C                 4.00    12.01070     C ( 1.00)
  0:      H                 1.00     1.00794     H ( 1.00)
  0:      N                 5.00    14.00670     N ( 1.00)
  0:      Pb               14.00   207.20000     Pb( 1.00)
  0: 
  0:       2 Sym. Ops. (no inversion) found ( 1 have fractional translation)
  0: 
  0: 
  0:                                     s                        frac. trans.
  0: 
  0:       isym =  1     identity                                     
  0: 
  0:  cryst.   s( 1) = (     1          0          0      )
  0:                   (     0          1          0      )
  0:                   (     0          0          1      )
  0: 
  0:  cart.    s( 1) = (  1.0000000  0.0000000  0.0000000 )
  0:                   (  0.0000000  1.0000000  0.0000000 )
  0:                   ( -0.0000000  0.0000000  1.0000000 )
  0: 
  0: 
  0:       isym =  2     180 deg rotation - cart. axis [0,1,0]        
  0: 
  0:  cryst.   s( 2) = (    -1          0          0      )    f =(  0.0000000 )
  0:                   (     0          1          0      )       (  0.5000000 )
  0:                   (     0          0         -1      )       (  0.0000000 )
  0: 
  0:  cart.    s( 2) = ( -1.0000000  0.0000000  0.0000000 )    f =(  0.0000000 )
  0:                   (  0.0000000  1.0000000  0.0000000 )       (  0.5309412 )
  0:                   (  0.0000000  0.0000000 -1.0000000 )       (  0.0000000 )
  0: 
  0: 
  0:    Cartesian axes
  0: 
  0:      site n.     atom                  positions (alat units)
  0:          1        H      tau(   1) = (   0.3036268   0.2294845  -0.0662061  )
  0:          2        H      tau(   2) = (   0.6004856   0.7604257   0.8056651  )
  0:          3        H      tau(   3) = (   0.0758187   0.2361688   1.0735411  )
  0:          4        H      tau(   4) = (   0.8282937   0.7671101  -0.3340821  )
  0:          5        H      tau(   5) = (   0.3271843   0.0390896   0.8423461  )
  0:          6        H      tau(   6) = (   0.5769281   0.5700309  -0.1028870  )
  0:          7        H      tau(   7) = (   0.1857834   0.8426586   0.9732659  )
  0:          8        H      tau(   8) = (   0.7183290   0.3117174  -0.2338069  )
  0:          9        H      tau(   9) = (   0.2979103   0.9663156  -0.0397577  )
  0:         10        H      tau(  10) = (   0.6062020   0.4353744   0.7792168  )
  0:         11        H      tau(  11) = (   0.0695119   0.9798141   1.1150968  )
  0:         12        H      tau(  12) = (   0.8346005   0.4488729  -0.3756378  )
  0:         13        H      tau(  13) = (   0.0693730   0.9821098   0.7266339  )
  0:         14        H      tau(  14) = (   0.8347394   0.4511686   0.0128252  )
  0:         15        H      tau(  15) = (   0.8505804   0.0560385   0.4151573  )
  0:         16        H      tau(  16) = (   0.0535320   0.5869797   0.3243018  )
  0:         17        H      tau(  17) = (   0.0804085   0.1303853   0.6878195  )
  0:         18        H      tau(  18) = (   0.8237039   0.6613266   0.0516395  )
  0:         19        Pb     tau(  19) = (   0.4465682   0.9461373   0.3370289  )
  0:         20        Pb     tau(  20) = (   0.4575442   0.4151961   0.4024301  )
  0:         21        C      tau(  21) = (   0.1987938   0.2196365   1.0078776  )
  0:         22        C      tau(  22) = (   0.7053186   0.7505777  -0.2684186  )
  0:         23        C      tau(  23) = (   0.2068514   0.0507942   0.9143753  )
  0:         24        C      tau(  24) = (   0.6972610   0.5817354  -0.1749162  )
  0:         25        C      tau(  25) = (   0.1877897   0.9661996   1.0401986  )
  0:         26        C      tau(  26) = (   0.7163227   0.4352584  -0.3007396  )
  0:         27        Br     tau(  27) = (   0.2812694   0.7681658   0.5987399  )
  0:         28        Br     tau(  28) = (   0.6228430   0.2372245   0.1407191  )
  0:         29        Br     tau(  29) = (   0.6109087   0.0844197   0.5981265  )
  0:         30        Br     tau(  30) = (   0.2932036   0.6153609   0.1413325  )
  0:         31        Br     tau(  31) = (   0.7317886   0.7199563   0.3657508  )
  0:         32        Br     tau(  32) = (   0.1723238   0.1890151   0.3737083  )
  0:         33        Br     tau(  33) = (   0.2224309   0.4168584   0.8533430  )
  0:         34        Br     tau(  34) = (   0.6816815   0.9477997  -0.1138840  )
  0:         35        N      tau(  35) = (   0.0662658   0.0399168   0.7843808  )
  0:         36        N      tau(  36) = (   0.8378466   0.5708581  -0.0449218  )
  0: 
  0:    Crystallographic axes
  0: 
  0:      site n.     atom                  positions (cryst. coord.)
  0:          1        H      tau(   1) = (  0.3358286  0.2161110  0.0662451  )
  0:          2        H      tau(   2) = (  0.6641714  0.7161110  0.9337549  )
  0:          3        H      tau(   3) = (  0.0838598  0.2224058  0.9508210  )
  0:          4        H      tau(   4) = (  0.9161402  0.7224058  0.0491790  )
  0:          5        H      tau(   5) = (  0.3618846  0.0368116  0.8544883  )
  0:          6        H      tau(   6) = (  0.6381154  0.5368116  0.1455117  )
  0:          7        H      tau(   7) = (  0.2054870  0.7935517  0.9094202  )
  0:          8        H      tau(   8) = (  0.7945130  0.2935517  0.0905798  )
  0:          9        H      tau(   9) = (  0.3295059  0.9100024  0.0865979  )
  0:         10        H      tau(  10) = (  0.6704941  0.4100024  0.9134021  )
  0:         11        H      tau(  11) = (  0.0768842  0.9227143  0.9838828  )
  0:         12        H      tau(  12) = (  0.9231158  0.4227143  0.0161172  )
  0:         13        H      tau(  13) = (  0.0767305  0.9248762  0.6508832  )
  0:         14        H      tau(  14) = (  0.9232695  0.4248762  0.3491168  )
  0:         15        H      tau(  15) = (  0.9407906  0.0527728  0.7003638  )
  0:         16        H      tau(  16) = (  0.0592094  0.5527728  0.2996362  )
  0:         17        H      tau(  17) = (  0.0889363  0.1227870  0.6220863  )
  0:         18        H      tau(  18) = (  0.9110637  0.6227870  0.3779137  )
  0:         19        Pb     tau(  19) = (  0.4939300  0.8910000  0.4697500  )
  0:         20        Pb     tau(  20) = (  0.5060700  0.3910000  0.5302500  )
  0:         21        C      tau(  21) = (  0.2198773  0.2068369  0.9443552  )
  0:         22        C      tau(  22) = (  0.7801227  0.7068369  0.0556448  )
  0:         23        C      tau(  23) = (  0.2287895  0.0478341  0.8674802  )
  0:         24        C      tau(  24) = (  0.7712105  0.5478341  0.1325198  )
  0:         25        C      tau(  25) = (  0.2077061  0.9098932  0.9675995  )
  0:         26        C      tau(  26) = (  0.7922939  0.4098932  0.0324005  )
  0:         27        Br     tau(  27) = (  0.3111000  0.7234000  0.6271000  )
  0:         28        Br     tau(  28) = (  0.6889000  0.2234000  0.3729000  )
  0:         29        Br     tau(  29) = (  0.6757000  0.0795000  0.7601000  )
  0:         30        Br     tau(  30) = (  0.3243000  0.5795000  0.2399000  )
  0:         31        Br     tau(  31) = (  0.8094000  0.6780000  0.6099000  )
  0:         32        Br     tau(  32) = (  0.1906000  0.1780000  0.3901000  )
  0:         33        Br     tau(  33) = (  0.2460213  0.3925655  0.8214815  )
  0:         34        Br     tau(  34) = (  0.7539787  0.8925655  0.1785185  )
  0:         35        N      tau(  35) = (  0.0732937  0.0375906  0.6991182  )
  0:         36        N      tau(  36) = (  0.9267063  0.5375906  0.3008818  )
  0: 
  0:      number of k points=   261
  0:                        cart. coord. in units 2pi/alat
  0:         k(    1) = (   0.0000000   0.0000000   0.0000000), wk =   0.0038314
  0:         k(    2) = (   0.0000000   0.0235431   0.0000000), wk =   0.0038314
  0:         k(    3) = (   0.0000000   0.0470862   0.0000000), wk =   0.0038314
  0:         k(    4) = (   0.0000000   0.0706293   0.0000000), wk =   0.0038314
  0:         k(    5) = (   0.0000000   0.0941724   0.0000000), wk =   0.0038314
  0:         k(    6) = (   0.0000000   0.1177155   0.0000000), wk =   0.0038314
  0:         k(    7) = (   0.0000000   0.1412586   0.0000000), wk =   0.0038314
  0:         k(    8) = (   0.0000000   0.1648017   0.0000000), wk =   0.0038314
  0:         k(    9) = (   0.0000000   0.1883448   0.0000000), wk =   0.0038314
  0:         k(   10) = (   0.0000000   0.2118879   0.0000000), wk =   0.0038314
  0:         k(   11) = (   0.0000000   0.2354309   0.0000000), wk =   0.0038314
  0:         k(   12) = (   0.0000000   0.2589740   0.0000000), wk =   0.0038314
  0:         k(   13) = (   0.0000000   0.2825171   0.0000000), wk =   0.0038314
  0:         k(   14) = (   0.0000000   0.3060602   0.0000000), wk =   0.0038314
  0:         k(   15) = (   0.0000000   0.3296033   0.0000000), wk =   0.0038314
  0:         k(   16) = (   0.0000000   0.3531464   0.0000000), wk =   0.0038314
  0:         k(   17) = (   0.0000000   0.3766895   0.0000000), wk =   0.0038314
  0:         k(   18) = (   0.0000000   0.4002326   0.0000000), wk =   0.0038314
  0:         k(   19) = (   0.0000000   0.4237757   0.0000000), wk =   0.0038314
  0:         k(   20) = (   0.0000000   0.4473188   0.0000000), wk =   0.0038314
  0:         k(   21) = (   0.0000000   0.4708619   0.0000000), wk =   0.0038314
  0:         k(   22) = (   0.0101267   0.4708619   0.0214270), wk =   0.0038314
  0:         k(   23) = (   0.0202533   0.4708619   0.0428539), wk =   0.0038314
  0:         k(   24) = (   0.0303800   0.4708619   0.0642809), wk =   0.0038314
  0:         k(   25) = (   0.0405066   0.4708619   0.0857079), wk =   0.0038314
  0:         k(   26) = (   0.0506333   0.4708619   0.1071349), wk =   0.0038314
  0:         k(   27) = (   0.0607599   0.4708619   0.1285618), wk =   0.0038314
  0:         k(   28) = (   0.0708866   0.4708619   0.1499888), wk =   0.0038314
  0:         k(   29) = (   0.0810132   0.4708619   0.1714158), wk =   0.0038314
  0:         k(   30) = (   0.0911399   0.4708619   0.1928427), wk =   0.0038314
  0:         k(   31) = (   0.1012665   0.4708619   0.2142697), wk =   0.0038314
  0:         k(   32) = (   0.1113932   0.4708619   0.2356967), wk =   0.0038314
  0:         k(   33) = (   0.1215198   0.4708619   0.2571237), wk =   0.0038314
  0:         k(   34) = (   0.1316465   0.4708619   0.2785506), wk =   0.0038314
  0:         k(   35) = (   0.1417731   0.4708619   0.2999776), wk =   0.0038314
  0:         k(   36) = (   0.1518998   0.4708619   0.3214046), wk =   0.0038314
  0:         k(   37) = (   0.1620264   0.4708619   0.3428315), wk =   0.0038314
  0:         k(   38) = (   0.1721531   0.4708619   0.3642585), wk =   0.0038314
  0:         k(   39) = (   0.1822798   0.4708619   0.3856855), wk =   0.0038314
  0:         k(   40) = (   0.1924064   0.4708619   0.4071125), wk =   0.0038314
  0:         k(   41) = (   0.2025331   0.4708619   0.4285394), wk =   0.0038314
  0:         k(   42) = (   0.2025331   0.4473188   0.4285394), wk =   0.0038314
  0:         k(   43) = (   0.2025331   0.4237757   0.4285394), wk =   0.0038314
  0:         k(   44) = (   0.2025331   0.4002326   0.4285394), wk =   0.0038314
  0:         k(   45) = (   0.2025331   0.3766895   0.4285394), wk =   0.0038314
  0:         k(   46) = (   0.2025331   0.3531464   0.4285394), wk =   0.0038314
  0:         k(   47) = (   0.2025331   0.3296033   0.4285394), wk =   0.0038314
  0:         k(   48) = (   0.2025331   0.3060602   0.4285394), wk =   0.0038314
  0:         k(   49) = (   0.2025331   0.2825171   0.4285394), wk =   0.0038314
  0:         k(   50) = (   0.2025331   0.2589740   0.4285394), wk =   0.0038314
  0:         k(   51) = (   0.2025331   0.2354309   0.4285394), wk =   0.0038314
  0:         k(   52) = (   0.2025331   0.2118879   0.4285394), wk =   0.0038314
  0:         k(   53) = (   0.2025331   0.1883448   0.4285394), wk =   0.0038314
  0:         k(   54) = (   0.2025331   0.1648017   0.4285394), wk =   0.0038314
  0:         k(   55) = (   0.2025331   0.1412586   0.4285394), wk =   0.0038314
  0:         k(   56) = (   0.2025331   0.1177155   0.4285394), wk =   0.0038314
  0:         k(   57) = (   0.2025331   0.0941724   0.4285394), wk =   0.0038314
  0:         k(   58) = (   0.2025331   0.0706293   0.4285394), wk =   0.0038314
  0:         k(   59) = (   0.2025331   0.0470862   0.4285394), wk =   0.0038314
  0:         k(   60) = (   0.2025331   0.0235431   0.4285394), wk =   0.0038314
  0:         k(   61) = (   0.2025331   0.0000000   0.4285394), wk =   0.0038314
  0:         k(   62) = (   0.1924064   0.0000000   0.4071125), wk =   0.0038314
  0:         k(   63) = (   0.1822798   0.0000000   0.3856855), wk =   0.0038314
  0:         k(   64) = (   0.1721531   0.0000000   0.3642585), wk =   0.0038314
  0:         k(   65) = (   0.1620264   0.0000000   0.3428315), wk =   0.0038314
  0:         k(   66) = (   0.1518998   0.0000000   0.3214046), wk =   0.0038314
  0:         k(   67) = (   0.1417731   0.0000000   0.2999776), wk =   0.0038314
  0:         k(   68) = (   0.1316465   0.0000000   0.2785506), wk =   0.0038314
  0:         k(   69) = (   0.1215198   0.0000000   0.2571237), wk =   0.0038314
  0:         k(   70) = (   0.1113932   0.0000000   0.2356967), wk =   0.0038314
  0:         k(   71) = (   0.1012665   0.0000000   0.2142697), wk =   0.0038314
  0:         k(   72) = (   0.0911399   0.0000000   0.1928427), wk =   0.0038314
  0:         k(   73) = (   0.0810132   0.0000000   0.1714158), wk =   0.0038314
  0:         k(   74) = (   0.0708866   0.0000000   0.1499888), wk =   0.0038314
  0:         k(   75) = (   0.0607599   0.0000000   0.1285618), wk =   0.0038314
  0:         k(   76) = (   0.0506333   0.0000000   0.1071349), wk =   0.0038314
  0:         k(   77) = (   0.0405066   0.0000000   0.0857079), wk =   0.0038314
  0:         k(   78) = (   0.0303800   0.0000000   0.0642809), wk =   0.0038314
  0:         k(   79) = (   0.0202533   0.0000000   0.0428539), wk =   0.0038314
  0:         k(   80) = (   0.0101267   0.0000000   0.0214270), wk =   0.0038314
  0:         k(   81) = (   0.0000000   0.0000000   0.0000000), wk =   0.0038314
  0:         k(   82) = (  -0.0175248   0.0000000   0.0214270), wk =   0.0038314
  0:         k(   83) = (  -0.0350496   0.0000000   0.0428539), wk =   0.0038314
  0:         k(   84) = (  -0.0525743   0.0000000   0.0642809), wk =   0.0038314
  0:         k(   85) = (  -0.0700991   0.0000000   0.0857079), wk =   0.0038314
  0:         k(   86) = (  -0.0876239   0.0000000   0.1071349), wk =   0.0038314
  0:         k(   87) = (  -0.1051487   0.0000000   0.1285618), wk =   0.0038314
  0:         k(   88) = (  -0.1226734   0.0000000   0.1499888), wk =   0.0038314
  0:         k(   89) = (  -0.1401982   0.0000000   0.1714158), wk =   0.0038314
  0:         k(   90) = (  -0.1577230   0.0000000   0.1928427), wk =   0.0038314
  0:         k(   91) = (  -0.1752478   0.0000000   0.2142697), wk =   0.0038314
  0:         k(   92) = (  -0.1927725   0.0000000   0.2356967), wk =   0.0038314
  0:         k(   93) = (  -0.2102973   0.0000000   0.2571237), wk =   0.0038314
  0:         k(   94) = (  -0.2278221   0.0000000   0.2785506), wk =   0.0038314
  0:         k(   95) = (  -0.2453469   0.0000000   0.2999776), wk =   0.0038314
  0:         k(   96) = (  -0.2628717   0.0000000   0.3214046), wk =   0.0038314
  0:         k(   97) = (  -0.2803964   0.0000000   0.3428315), wk =   0.0038314
  0:         k(   98) = (  -0.2979212   0.0000000   0.3642585), wk =   0.0038314
  0:         k(   99) = (  -0.3154460   0.0000000   0.3856855), wk =   0.0038314
  0:         k(  100) = (  -0.3329708   0.0000000   0.4071125), wk =   0.0038314
  0:         k(  101) = (  -0.3504955   0.0000000   0.4285394), wk =   0.0038314
  0:         k(  102) = (  -0.3504955   0.0235431   0.4285394), wk =   0.0038314
  0:         k(  103) = (  -0.3504955   0.0470862   0.4285394), wk =   0.0038314
  0:         k(  104) = (  -0.3504955   0.0706293   0.4285394), wk =   0.0038314
  0:         k(  105) = (  -0.3504955   0.0941724   0.4285394), wk =   0.0038314
  0:         k(  106) = (  -0.3504955   0.1177155   0.4285394), wk =   0.0038314
  0:         k(  107) = (  -0.3504955   0.1412586   0.4285394), wk =   0.0038314
  0:         k(  108) = (  -0.3504955   0.1648017   0.4285394), wk =   0.0038314
  0:         k(  109) = (  -0.3504955   0.1883448   0.4285394), wk =   0.0038314
  0:         k(  110) = (  -0.3504955   0.2118879   0.4285394), wk =   0.0038314
  0:         k(  111) = (  -0.3504955   0.2354309   0.4285394), wk =   0.0038314
  0:         k(  112) = (  -0.3504955   0.2589740   0.4285394), wk =   0.0038314
  0:         k(  113) = (  -0.3504955   0.2825171   0.4285394), wk =   0.0038314
  0:         k(  114) = (  -0.3504955   0.3060602   0.4285394), wk =   0.0038314
  0:         k(  115) = (  -0.3504955   0.3296033   0.4285394), wk =   0.0038314
  0:         k(  116) = (  -0.3504955   0.3531464   0.4285394), wk =   0.0038314
  0:         k(  117) = (  -0.3504955   0.3766895   0.4285394), wk =   0.0038314
  0:         k(  118) = (  -0.3504955   0.4002326   0.4285394), wk =   0.0038314
  0:         k(  119) = (  -0.3504955   0.4237757   0.4285394), wk =   0.0038314
  0:         k(  120) = (  -0.3504955   0.4473188   0.4285394), wk =   0.0038314
  0:         k(  121) = (  -0.3504955   0.4708619   0.4285394), wk =   0.0038314
  0:         k(  122) = (  -0.3329708   0.4708619   0.4071125), wk =   0.0038314
  0:         k(  123) = (  -0.3154460   0.4708619   0.3856855), wk =   0.0038314
  0:         k(  124) = (  -0.2979212   0.4708619   0.3642585), wk =   0.0038314
  0:         k(  125) = (  -0.2803964   0.4708619   0.3428315), wk =   0.0038314
  0:         k(  126) = (  -0.2628717   0.4708619   0.3214046), wk =   0.0038314
  0:         k(  127) = (  -0.2453469   0.4708619   0.2999776), wk =   0.0038314
  0:         k(  128) = (  -0.2278221   0.4708619   0.2785506), wk =   0.0038314
  0:         k(  129) = (  -0.2102973   0.4708619   0.2571237), wk =   0.0038314
  0:         k(  130) = (  -0.1927725   0.4708619   0.2356967), wk =   0.0038314
  0:         k(  131) = (  -0.1752478   0.4708619   0.2142697), wk =   0.0038314
  0:         k(  132) = (  -0.1577230   0.4708619   0.1928427), wk =   0.0038314
  0:         k(  133) = (  -0.1401982   0.4708619   0.1714158), wk =   0.0038314
  0:         k(  134) = (  -0.1226734   0.4708619   0.1499888), wk =   0.0038314
  0:         k(  135) = (  -0.1051487   0.4708619   0.1285618), wk =   0.0038314
  0:         k(  136) = (  -0.0876239   0.4708619   0.1071349), wk =   0.0038314
  0:         k(  137) = (  -0.0700991   0.4708619   0.0857079), wk =   0.0038314
  0:         k(  138) = (  -0.0525743   0.4708619   0.0642809), wk =   0.0038314
  0:         k(  139) = (  -0.0350496   0.4708619   0.0428539), wk =   0.0038314
  0:         k(  140) = (  -0.0175248   0.4708619   0.0214270), wk =   0.0038314
  0:         k(  141) = (   0.0000000   0.4708619   0.0000000), wk =   0.0038314
  0:         k(  142) = (  -0.0073981   0.4708619   0.0297094), wk =   0.0038314
  0:         k(  143) = (  -0.0147962   0.4708619   0.0594188), wk =   0.0038314
  0:         k(  144) = (  -0.0221944   0.4708619   0.0891282), wk =   0.0038314
  0:         k(  145) = (  -0.0295925   0.4708619   0.1188376), wk =   0.0038314
  0:         k(  146) = (  -0.0369906   0.4708619   0.1485470), wk =   0.0038314
  0:         k(  147) = (  -0.0443887   0.4708619   0.1782564), wk =   0.0038314
  0:         k(  148) = (  -0.0517869   0.4708619   0.2079658), wk =   0.0038314
  0:         k(  149) = (  -0.0591850   0.4708619   0.2376752), wk =   0.0038314
  0:         k(  150) = (  -0.0665831   0.4708619   0.2673846), wk =   0.0038314
  0:         k(  151) = (  -0.0739812   0.4708619   0.2970940), wk =   0.0038314
  0:         k(  152) = (  -0.0813794   0.4708619   0.3268034), wk =   0.0038314
  0:         k(  153) = (  -0.0887775   0.4708619   0.3565128), wk =   0.0038314
  0:         k(  154) = (  -0.0961756   0.4708619   0.3862222), wk =   0.0038314
  0:         k(  155) = (  -0.1035737   0.4708619   0.4159316), wk =   0.0038314
  0:         k(  156) = (  -0.1109719   0.4708619   0.4456410), wk =   0.0038314
  0:         k(  157) = (  -0.1183700   0.4708619   0.4753504), wk =   0.0038314
  0:         k(  158) = (  -0.1257681   0.4708619   0.5050598), wk =   0.0038314
  0:         k(  159) = (  -0.1331662   0.4708619   0.5347692), wk =   0.0038314
  0:         k(  160) = (  -0.1405644   0.4708619   0.5644786), wk =   0.0038314
  0:         k(  161) = (  -0.1479625   0.4708619   0.5941880), wk =   0.0038314
  0:         k(  162) = (  -0.1479625   0.4473188   0.5941880), wk =   0.0038314
  0:         k(  163) = (  -0.1479625   0.4237757   0.5941880), wk =   0.0038314
  0:         k(  164) = (  -0.1479625   0.4002326   0.5941880), wk =   0.0038314
  0:         k(  165) = (  -0.1479625   0.3766895   0.5941880), wk =   0.0038314
  0:         k(  166) = (  -0.1479625   0.3531464   0.5941880), wk =   0.0038314
  0:         k(  167) = (  -0.1479625   0.3296033   0.5941880), wk =   0.0038314
  0:         k(  168) = (  -0.1479625   0.3060602   0.5941880), wk =   0.0038314
  0:         k(  169) = (  -0.1479625   0.2825171   0.5941880), wk =   0.0038314
  0:         k(  170) = (  -0.1479625   0.2589740   0.5941880), wk =   0.0038314
  0:         k(  171) = (  -0.1479625   0.2354309   0.5941880), wk =   0.0038314
  0:         k(  172) = (  -0.1479625   0.2118879   0.5941880), wk =   0.0038314
  0:         k(  173) = (  -0.1479625   0.1883448   0.5941880), wk =   0.0038314
  0:         k(  174) = (  -0.1479625   0.1648017   0.5941880), wk =   0.0038314
  0:         k(  175) = (  -0.1479625   0.1412586   0.5941880), wk =   0.0038314
  0:         k(  176) = (  -0.1479625   0.1177155   0.5941880), wk =   0.0038314
  0:         k(  177) = (  -0.1479625   0.0941724   0.5941880), wk =   0.0038314
  0:         k(  178) = (  -0.1479625   0.0706293   0.5941880), wk =   0.0038314
  0:         k(  179) = (  -0.1479625   0.0470862   0.5941880), wk =   0.0038314
  0:         k(  180) = (  -0.1479625   0.0235431   0.5941880), wk =   0.0038314
  0:         k(  181) = (  -0.1479625   0.0000000   0.5941880), wk =   0.0038314
  0:         k(  182) = (  -0.1405644   0.0000000   0.5644786), wk =   0.0038314
  0:         k(  183) = (  -0.1331662   0.0000000   0.5347692), wk =   0.0038314
  0:         k(  184) = (  -0.1257681   0.0000000   0.5050598), wk =   0.0038314
  0:         k(  185) = (  -0.1183700   0.0000000   0.4753504), wk =   0.0038314
  0:         k(  186) = (  -0.1109719   0.0000000   0.4456410), wk =   0.0038314
  0:         k(  187) = (  -0.1035737   0.0000000   0.4159316), wk =   0.0038314
  0:         k(  188) = (  -0.0961756   0.0000000   0.3862222), wk =   0.0038314
  0:         k(  189) = (  -0.0887775   0.0000000   0.3565128), wk =   0.0038314
  0:         k(  190) = (  -0.0813794   0.0000000   0.3268034), wk =   0.0038314
  0:         k(  191) = (  -0.0739812   0.0000000   0.2970940), wk =   0.0038314
  0:         k(  192) = (  -0.0665831   0.0000000   0.2673846), wk =   0.0038314
  0:         k(  193) = (  -0.0591850   0.0000000   0.2376752), wk =   0.0038314
  0:         k(  194) = (  -0.0517869   0.0000000   0.2079658), wk =   0.0038314
  0:         k(  195) = (  -0.0443887   0.0000000   0.1782564), wk =   0.0038314
  0:         k(  196) = (  -0.0369906   0.0000000   0.1485470), wk =   0.0038314
  0:         k(  197) = (  -0.0295925   0.0000000   0.1188376), wk =   0.0038314
  0:         k(  198) = (  -0.0221944   0.0000000   0.0891282), wk =   0.0038314
  0:         k(  199) = (  -0.0147962   0.0000000   0.0594188), wk =   0.0038314
  0:         k(  200) = (  -0.0073981   0.0000000   0.0297094), wk =   0.0038314
  0:         k(  201) = (   0.0000000   0.0000000   0.0000000), wk =   0.0038314
  0:         k(  202) = (   0.0276514   0.0000000   0.0000000), wk =   0.0038314
  0:         k(  203) = (   0.0553029   0.0000000   0.0000000), wk =   0.0038314
  0:         k(  204) = (   0.0829543   0.0000000   0.0000000), wk =   0.0038314
  0:         k(  205) = (   0.1106057   0.0000000   0.0000000), wk =   0.0038314
  0:         k(  206) = (   0.1382571   0.0000000   0.0000000), wk =   0.0038314
  0:         k(  207) = (   0.1659086   0.0000000   0.0000000), wk =   0.0038314
  0:         k(  208) = (   0.1935600   0.0000000   0.0000000), wk =   0.0038314
  0:         k(  209) = (   0.2212114   0.0000000   0.0000000), wk =   0.0038314
  0:         k(  210) = (   0.2488629   0.0000000   0.0000000), wk =   0.0038314
  0:         k(  211) = (   0.2765143   0.0000000   0.0000000), wk =   0.0038314
  0:         k(  212) = (   0.3041657   0.0000000   0.0000000), wk =   0.0038314
  0:         k(  213) = (   0.3318172   0.0000000   0.0000000), wk =   0.0038314
  0:         k(  214) = (   0.3594686   0.0000000   0.0000000), wk =   0.0038314
  0:         k(  215) = (   0.3871200   0.0000000   0.0000000), wk =   0.0038314
  0:         k(  216) = (   0.4147714   0.0000000   0.0000000), wk =   0.0038314
  0:         k(  217) = (   0.4424229   0.0000000   0.0000000), wk =   0.0038314
  0:         k(  218) = (   0.4700743   0.0000000   0.0000000), wk =   0.0038314
  0:         k(  219) = (   0.4977257   0.0000000   0.0000000), wk =   0.0038314
  0:         k(  220) = (   0.5253772   0.0000000   0.0000000), wk =   0.0038314
  0:         k(  221) = (   0.5530286   0.0000000   0.0000000), wk =   0.0038314
  0:         k(  222) = (   0.5530286   0.0235431   0.0000000), wk =   0.0038314
  0:         k(  223) = (   0.5530286   0.0470862   0.0000000), wk =   0.0038314
  0:         k(  224) = (   0.5530286   0.0706293   0.0000000), wk =   0.0038314
  0:         k(  225) = (   0.5530286   0.0941724   0.0000000), wk =   0.0038314
  0:         k(  226) = (   0.5530286   0.1177155   0.0000000), wk =   0.0038314
  0:         k(  227) = (   0.5530286   0.1412586   0.0000000), wk =   0.0038314
  0:         k(  228) = (   0.5530286   0.1648017   0.0000000), wk =   0.0038314
  0:         k(  229) = (   0.5530286   0.1883448   0.0000000), wk =   0.0038314
  0:         k(  230) = (   0.5530286   0.2118879   0.0000000), wk =   0.0038314
  0:         k(  231) = (   0.5530286   0.2354309   0.0000000), wk =   0.0038314
  0:         k(  232) = (   0.5530286   0.2589740   0.0000000), wk =   0.0038314
  0:         k(  233) = (   0.5530286   0.2825171   0.0000000), wk =   0.0038314
  0:         k(  234) = (   0.5530286   0.3060602   0.0000000), wk =   0.0038314
  0:         k(  235) = (   0.5530286   0.3296033   0.0000000), wk =   0.0038314
  0:         k(  236) = (   0.5530286   0.3531464   0.0000000), wk =   0.0038314
  0:         k(  237) = (   0.5530286   0.3766895   0.0000000), wk =   0.0038314
  0:         k(  238) = (   0.5530286   0.4002326   0.0000000), wk =   0.0038314
  0:         k(  239) = (   0.5530286   0.4237757   0.0000000), wk =   0.0038314
  0:         k(  240) = (   0.5530286   0.4473188   0.0000000), wk =   0.0038314
  0:         k(  241) = (   0.5530286   0.4708619   0.0000000), wk =   0.0038314
  0:         k(  242) = (   0.5253772   0.4708619   0.0000000), wk =   0.0038314
  0:         k(  243) = (   0.4977257   0.4708619   0.0000000), wk =   0.0038314
  0:         k(  244) = (   0.4700743   0.4708619   0.0000000), wk =   0.0038314
  0:         k(  245) = (   0.4424229   0.4708619   0.0000000), wk =   0.0038314
  0:         k(  246) = (   0.4147714   0.4708619   0.0000000), wk =   0.0038314
  0:         k(  247) = (   0.3871200   0.4708619   0.0000000), wk =   0.0038314
  0:         k(  248) = (   0.3594686   0.4708619   0.0000000), wk =   0.0038314
  0:         k(  249) = (   0.3318172   0.4708619   0.0000000), wk =   0.0038314
  0:         k(  250) = (   0.3041657   0.4708619   0.0000000), wk =   0.0038314
  0:         k(  251) = (   0.2765143   0.4708619   0.0000000), wk =   0.0038314
  0:         k(  252) = (   0.2488629   0.4708619   0.0000000), wk =   0.0038314
  0:         k(  253) = (   0.2212114   0.4708619   0.0000000), wk =   0.0038314
  0:         k(  254) = (   0.1935600   0.4708619   0.0000000), wk =   0.0038314
  0:         k(  255) = (   0.1659086   0.4708619   0.0000000), wk =   0.0038314
  0:         k(  256) = (   0.1382571   0.4708619   0.0000000), wk =   0.0038314
  0:         k(  257) = (   0.1106057   0.4708619   0.0000000), wk =   0.0038314
  0:         k(  258) = (   0.0829543   0.4708619   0.0000000), wk =   0.0038314
  0:         k(  259) = (   0.0553029   0.4708619   0.0000000), wk =   0.0038314
  0:         k(  260) = (   0.0276514   0.4708619   0.0000000), wk =   0.0038314
  0:         k(  261) = (   0.0000000   0.4708619   0.0000000), wk =   0.0038314
  0: 
  0:                        cryst. coord.
  0:         k(    1) = (   0.0000000   0.0000000   0.0000000), wk =   0.0038314
  0:         k(    2) = (   0.0000000   0.0250000   0.0000000), wk =   0.0038314
  0:         k(    3) = (   0.0000000   0.0500000   0.0000000), wk =   0.0038314
  0:         k(    4) = (   0.0000000   0.0750000   0.0000000), wk =   0.0038314
  0:         k(    5) = (   0.0000000   0.1000000   0.0000000), wk =   0.0038314
  0:         k(    6) = (   0.0000000   0.1250000   0.0000000), wk =   0.0038314
  0:         k(    7) = (   0.0000000   0.1500000   0.0000000), wk =   0.0038314
  0:         k(    8) = (   0.0000000   0.1750000   0.0000000), wk =   0.0038314
  0:         k(    9) = (   0.0000000   0.2000000   0.0000000), wk =   0.0038314
  0:         k(   10) = (   0.0000000   0.2250000   0.0000000), wk =   0.0038314
  0:         k(   11) = (   0.0000000   0.2500000   0.0000000), wk =   0.0038314
  0:         k(   12) = (   0.0000000   0.2750000   0.0000000), wk =   0.0038314
  0:         k(   13) = (   0.0000000   0.3000000   0.0000000), wk =   0.0038314
  0:         k(   14) = (   0.0000000   0.3250000   0.0000000), wk =   0.0038314
  0:         k(   15) = (   0.0000000   0.3500000   0.0000000), wk =   0.0038314
  0:         k(   16) = (   0.0000000   0.3750000   0.0000000), wk =   0.0038314
  0:         k(   17) = (   0.0000000   0.4000000   0.0000000), wk =   0.0038314
  0:         k(   18) = (   0.0000000   0.4250000   0.0000000), wk =   0.0038314
  0:         k(   19) = (   0.0000000   0.4500000   0.0000000), wk =   0.0038314
  0:         k(   20) = (   0.0000000   0.4750000   0.0000000), wk =   0.0038314
  0:         k(   21) = (   0.0000000   0.5000000   0.0000000), wk =   0.0038314
  0:         k(   22) = (   0.0000000   0.5000000   0.0250000), wk =   0.0038314
  0:         k(   23) = (   0.0000000   0.5000000   0.0500000), wk =   0.0038314
  0:         k(   24) = (  -0.0000000   0.5000000   0.0750000), wk =   0.0038314
  0:         k(   25) = (   0.0000000   0.5000000   0.1000000), wk =   0.0038314
  0:         k(   26) = (   0.0000000   0.5000000   0.1250000), wk =   0.0038314
  0:         k(   27) = (  -0.0000000   0.5000000   0.1500000), wk =   0.0038314
  0:         k(   28) = (  -0.0000000   0.5000000   0.1750000), wk =   0.0038314
  0:         k(   29) = (   0.0000000   0.5000000   0.2000000), wk =   0.0038314
  0:         k(   30) = (  -0.0000000   0.5000000   0.2250000), wk =   0.0038314
  0:         k(   31) = (   0.0000000   0.5000000   0.2500000), wk =   0.0038314
  0:         k(   32) = (   0.0000000   0.5000000   0.2750000), wk =   0.0038314
  0:         k(   33) = (  -0.0000000   0.5000000   0.3000000), wk =   0.0038314
  0:         k(   34) = (  -0.0000000   0.5000000   0.3250000), wk =   0.0038314
  0:         k(   35) = (  -0.0000000   0.5000000   0.3500000), wk =   0.0038314
  0:         k(   36) = (   0.0000000   0.5000000   0.3750000), wk =   0.0038314
  0:         k(   37) = (   0.0000000   0.5000000   0.4000000), wk =   0.0038314
  0:         k(   38) = (  -0.0000000   0.5000000   0.4250000), wk =   0.0038314
  0:         k(   39) = (  -0.0000000   0.5000000   0.4500000), wk =   0.0038314
  0:         k(   40) = (  -0.0000000   0.5000000   0.4750000), wk =   0.0038314
  0:         k(   41) = (   0.0000000   0.5000000   0.5000000), wk =   0.0038314
  0:         k(   42) = (   0.0000000   0.4750000   0.5000000), wk =   0.0038314
  0:         k(   43) = (   0.0000000   0.4500000   0.5000000), wk =   0.0038314
  0:         k(   44) = (   0.0000000   0.4250000   0.5000000), wk =   0.0038314
  0:         k(   45) = (   0.0000000   0.4000000   0.5000000), wk =   0.0038314
  0:         k(   46) = (   0.0000000   0.3750000   0.5000000), wk =   0.0038314
  0:         k(   47) = (   0.0000000   0.3500000   0.5000000), wk =   0.0038314
  0:         k(   48) = (   0.0000000   0.3250000   0.5000000), wk =   0.0038314
  0:         k(   49) = (   0.0000000   0.3000000   0.5000000), wk =   0.0038314
  0:         k(   50) = (   0.0000000   0.2750000   0.5000000), wk =   0.0038314
  0:         k(   51) = (   0.0000000   0.2500000   0.5000000), wk =   0.0038314
  0:         k(   52) = (   0.0000000   0.2250000   0.5000000), wk =   0.0038314
  0:         k(   53) = (   0.0000000   0.2000000   0.5000000), wk =   0.0038314
  0:         k(   54) = (   0.0000000   0.1750000   0.5000000), wk =   0.0038314
  0:         k(   55) = (   0.0000000   0.1500000   0.5000000), wk =   0.0038314
  0:         k(   56) = (   0.0000000   0.1250000   0.5000000), wk =   0.0038314
  0:         k(   57) = (   0.0000000   0.1000000   0.5000000), wk =   0.0038314
  0:         k(   58) = (   0.0000000   0.0750000   0.5000000), wk =   0.0038314
  0:         k(   59) = (   0.0000000   0.0500000   0.5000000), wk =   0.0038314
  0:         k(   60) = (   0.0000000   0.0250000   0.5000000), wk =   0.0038314
  0:         k(   61) = (   0.0000000   0.0000000   0.5000000), wk =   0.0038314
  0:         k(   62) = (  -0.0000000   0.0000000   0.4750000), wk =   0.0038314
  0:         k(   63) = (  -0.0000000   0.0000000   0.4500000), wk =   0.0038314
  0:         k(   64) = (  -0.0000000   0.0000000   0.4250000), wk =   0.0038314
  0:         k(   65) = (   0.0000000   0.0000000   0.4000000), wk =   0.0038314
  0:         k(   66) = (   0.0000000   0.0000000   0.3750000), wk =   0.0038314
  0:         k(   67) = (  -0.0000000   0.0000000   0.3500000), wk =   0.0038314
  0:         k(   68) = (  -0.0000000   0.0000000   0.3250000), wk =   0.0038314
  0:         k(   69) = (   0.0000000   0.0000000   0.3000000), wk =   0.0038314
  0:         k(   70) = (   0.0000000   0.0000000   0.2750000), wk =   0.0038314
  0:         k(   71) = (   0.0000000   0.0000000   0.2500000), wk =   0.0038314
  0:         k(   72) = (  -0.0000000   0.0000000   0.2250000), wk =   0.0038314
  0:         k(   73) = (   0.0000000   0.0000000   0.2000000), wk =   0.0038314
  0:         k(   74) = (  -0.0000000   0.0000000   0.1750000), wk =   0.0038314
  0:         k(   75) = (  -0.0000000   0.0000000   0.1500000), wk =   0.0038314
  0:         k(   76) = (   0.0000000   0.0000000   0.1250000), wk =   0.0038314
  0:         k(   77) = (   0.0000000   0.0000000   0.1000000), wk =   0.0038314
  0:         k(   78) = (   0.0000000   0.0000000   0.0750000), wk =   0.0038314
  0:         k(   79) = (   0.0000000   0.0000000   0.0500000), wk =   0.0038314
  0:         k(   80) = (  -0.0000000   0.0000000   0.0250000), wk =   0.0038314
  0:         k(   81) = (   0.0000000   0.0000000   0.0000000), wk =   0.0038314
  0:         k(   82) = (  -0.0250000   0.0000000   0.0250000), wk =   0.0038314
  0:         k(   83) = (  -0.0500000   0.0000000   0.0500000), wk =   0.0038314
  0:         k(   84) = (  -0.0750000   0.0000000   0.0750000), wk =   0.0038314
  0:         k(   85) = (  -0.1000000   0.0000000   0.1000000), wk =   0.0038314
  0:         k(   86) = (  -0.1250000   0.0000000   0.1250000), wk =   0.0038314
  0:         k(   87) = (  -0.1500000   0.0000000   0.1500000), wk =   0.0038314
  0:         k(   88) = (  -0.1750000   0.0000000   0.1750000), wk =   0.0038314
  0:         k(   89) = (  -0.2000000   0.0000000   0.2000000), wk =   0.0038314
  0:         k(   90) = (  -0.2250000   0.0000000   0.2250000), wk =   0.0038314
  0:         k(   91) = (  -0.2500000   0.0000000   0.2500000), wk =   0.0038314
  0:         k(   92) = (  -0.2750000   0.0000000   0.2750000), wk =   0.0038314
  0:         k(   93) = (  -0.3000000   0.0000000   0.3000000), wk =   0.0038314
  0:         k(   94) = (  -0.3250000   0.0000000   0.3250000), wk =   0.0038314
  0:         k(   95) = (  -0.3500000   0.0000000   0.3500000), wk =   0.0038314
  0:         k(   96) = (  -0.3750000   0.0000000   0.3750000), wk =   0.0038314
  0:         k(   97) = (  -0.4000000   0.0000000   0.4000000), wk =   0.0038314
  0:         k(   98) = (  -0.4250000   0.0000000   0.4250000), wk =   0.0038314
  0:         k(   99) = (  -0.4500000   0.0000000   0.4500000), wk =   0.0038314
  0:         k(  100) = (  -0.4750000   0.0000000   0.4750000), wk =   0.0038314
  0:         k(  101) = (  -0.5000000   0.0000000   0.5000000), wk =   0.0038314
  0:         k(  102) = (  -0.5000000   0.0250000   0.5000000), wk =   0.0038314
  0:         k(  103) = (  -0.5000000   0.0500000   0.5000000), wk =   0.0038314
  0:         k(  104) = (  -0.5000000   0.0750000   0.5000000), wk =   0.0038314
  0:         k(  105) = (  -0.5000000   0.1000000   0.5000000), wk =   0.0038314
  0:         k(  106) = (  -0.5000000   0.1250000   0.5000000), wk =   0.0038314
  0:         k(  107) = (  -0.5000000   0.1500000   0.5000000), wk =   0.0038314
  0:         k(  108) = (  -0.5000000   0.1750000   0.5000000), wk =   0.0038314
  0:         k(  109) = (  -0.5000000   0.2000000   0.5000000), wk =   0.0038314
  0:         k(  110) = (  -0.5000000   0.2250000   0.5000000), wk =   0.0038314
  0:         k(  111) = (  -0.5000000   0.2500000   0.5000000), wk =   0.0038314
  0:         k(  112) = (  -0.5000000   0.2750000   0.5000000), wk =   0.0038314
  0:         k(  113) = (  -0.5000000   0.3000000   0.5000000), wk =   0.0038314
  0:         k(  114) = (  -0.5000000   0.3250000   0.5000000), wk =   0.0038314
  0:         k(  115) = (  -0.5000000   0.3500000   0.5000000), wk =   0.0038314
  0:         k(  116) = (  -0.5000000   0.3750000   0.5000000), wk =   0.0038314
  0:         k(  117) = (  -0.5000000   0.4000000   0.5000000), wk =   0.0038314
  0:         k(  118) = (  -0.5000000   0.4250000   0.5000000), wk =   0.0038314
  0:         k(  119) = (  -0.5000000   0.4500000   0.5000000), wk =   0.0038314
  0:         k(  120) = (  -0.5000000   0.4750000   0.5000000), wk =   0.0038314
  0:         k(  121) = (  -0.5000000   0.5000000   0.5000000), wk =   0.0038314
  0:         k(  122) = (  -0.4750000   0.5000000   0.4750000), wk =   0.0038314
  0:         k(  123) = (  -0.4500000   0.5000000   0.4500000), wk =   0.0038314
  0:         k(  124) = (  -0.4250000   0.5000000   0.4250000), wk =   0.0038314
  0:         k(  125) = (  -0.4000000   0.5000000   0.4000000), wk =   0.0038314
  0:         k(  126) = (  -0.3750000   0.5000000   0.3750000), wk =   0.0038314
  0:         k(  127) = (  -0.3500000   0.5000000   0.3500000), wk =   0.0038314
  0:         k(  128) = (  -0.3250000   0.5000000   0.3250000), wk =   0.0038314
  0:         k(  129) = (  -0.3000000   0.5000000   0.3000000), wk =   0.0038314
  0:         k(  130) = (  -0.2750000   0.5000000   0.2750000), wk =   0.0038314
  0:         k(  131) = (  -0.2500000   0.5000000   0.2500000), wk =   0.0038314
  0:         k(  132) = (  -0.2250000   0.5000000   0.2250000), wk =   0.0038314
  0:         k(  133) = (  -0.2000000   0.5000000   0.2000000), wk =   0.0038314
  0:         k(  134) = (  -0.1750000   0.5000000   0.1750000), wk =   0.0038314
  0:         k(  135) = (  -0.1500000   0.5000000   0.1500000), wk =   0.0038314
  0:         k(  136) = (  -0.1250000   0.5000000   0.1250000), wk =   0.0038314
  0:         k(  137) = (  -0.1000000   0.5000000   0.1000000), wk =   0.0038314
  0:         k(  138) = (  -0.0750000   0.5000000   0.0750000), wk =   0.0038314
  0:         k(  139) = (  -0.0500000   0.5000000   0.0500000), wk =   0.0038314
  0:         k(  140) = (  -0.0250000   0.5000000   0.0250000), wk =   0.0038314
  0:         k(  141) = (   0.0000000   0.5000000   0.0000000), wk =   0.0038314
  0:         k(  142) = (  -0.0193834   0.5000000   0.0346636), wk =   0.0038314
  0:         k(  143) = (  -0.0387668   0.5000000   0.0693271), wk =   0.0038314
  0:         k(  144) = (  -0.0581502   0.5000000   0.1039907), wk =   0.0038314
  0:         k(  145) = (  -0.0775336   0.5000000   0.1386542), wk =   0.0038314
  0:         k(  146) = (  -0.0969170   0.5000000   0.1733178), wk =   0.0038314
  0:         k(  147) = (  -0.1163004   0.5000000   0.2079813), wk =   0.0038314
  0:         k(  148) = (  -0.1356838   0.5000000   0.2426449), wk =   0.0038314
  0:         k(  149) = (  -0.1550672   0.5000000   0.2773084), wk =   0.0038314
  0:         k(  150) = (  -0.1744506   0.5000000   0.3119720), wk =   0.0038314
  0:         k(  151) = (  -0.1938341   0.5000000   0.3466355), wk =   0.0038314
  0:         k(  152) = (  -0.2132175   0.5000000   0.3812991), wk =   0.0038314
  0:         k(  153) = (  -0.2326009   0.5000000   0.4159626), wk =   0.0038314
  0:         k(  154) = (  -0.2519843   0.5000000   0.4506262), wk =   0.0038314
  0:         k(  155) = (  -0.2713677   0.5000000   0.4852897), wk =   0.0038314
  0:         k(  156) = (  -0.2907511   0.5000000   0.5199533), wk =   0.0038314
  0:         k(  157) = (  -0.3101345   0.5000000   0.5546169), wk =   0.0038314
  0:         k(  158) = (  -0.3295179   0.5000000   0.5892804), wk =   0.0038314
  0:         k(  159) = (  -0.3489013   0.5000000   0.6239440), wk =   0.0038314
  0:         k(  160) = (  -0.3682847   0.5000000   0.6586075), wk =   0.0038314
  0:         k(  161) = (  -0.3876681   0.5000000   0.6932711), wk =   0.0038314
  0:         k(  162) = (  -0.3876681   0.4750000   0.6932711), wk =   0.0038314
  0:         k(  163) = (  -0.3876681   0.4500000   0.6932711), wk =   0.0038314
  0:         k(  164) = (  -0.3876681   0.4250000   0.6932711), wk =   0.0038314
  0:         k(  165) = (  -0.3876681   0.4000000   0.6932711), wk =   0.0038314
  0:         k(  166) = (  -0.3876681   0.3750000   0.6932711), wk =   0.0038314
  0:         k(  167) = (  -0.3876681   0.3500000   0.6932711), wk =   0.0038314
  0:         k(  168) = (  -0.3876681   0.3250000   0.6932711), wk =   0.0038314
  0:         k(  169) = (  -0.3876681   0.3000000   0.6932711), wk =   0.0038314
  0:         k(  170) = (  -0.3876681   0.2750000   0.6932711), wk =   0.0038314
  0:         k(  171) = (  -0.3876681   0.2500000   0.6932711), wk =   0.0038314
  0:         k(  172) = (  -0.3876681   0.2250000   0.6932711), wk =   0.0038314
  0:         k(  173) = (  -0.3876681   0.2000000   0.6932711), wk =   0.0038314
  0:         k(  174) = (  -0.3876681   0.1750000   0.6932711), wk =   0.0038314
  0:         k(  175) = (  -0.3876681   0.1500000   0.6932711), wk =   0.0038314
  0:         k(  176) = (  -0.3876681   0.1250000   0.6932711), wk =   0.0038314
  0:         k(  177) = (  -0.3876681   0.1000000   0.6932711), wk =   0.0038314
  0:         k(  178) = (  -0.3876681   0.0750000   0.6932711), wk =   0.0038314
  0:         k(  179) = (  -0.3876681   0.0500000   0.6932711), wk =   0.0038314
  0:         k(  180) = (  -0.3876681   0.0250000   0.6932711), wk =   0.0038314
  0:         k(  181) = (  -0.3876681   0.0000000   0.6932711), wk =   0.0038314
  0:         k(  182) = (  -0.3682847   0.0000000   0.6586075), wk =   0.0038314
  0:         k(  183) = (  -0.3489013   0.0000000   0.6239440), wk =   0.0038314
  0:         k(  184) = (  -0.3295179   0.0000000   0.5892804), wk =   0.0038314
  0:         k(  185) = (  -0.3101345   0.0000000   0.5546169), wk =   0.0038314
  0:         k(  186) = (  -0.2907511   0.0000000   0.5199533), wk =   0.0038314
  0:         k(  187) = (  -0.2713677   0.0000000   0.4852897), wk =   0.0038314
  0:         k(  188) = (  -0.2519843   0.0000000   0.4506262), wk =   0.0038314
  0:         k(  189) = (  -0.2326009   0.0000000   0.4159626), wk =   0.0038314
  0:         k(  190) = (  -0.2132175   0.0000000   0.3812991), wk =   0.0038314
  0:         k(  191) = (  -0.1938341   0.0000000   0.3466355), wk =   0.0038314
  0:         k(  192) = (  -0.1744506   0.0000000   0.3119720), wk =   0.0038314
  0:         k(  193) = (  -0.1550672   0.0000000   0.2773084), wk =   0.0038314
  0:         k(  194) = (  -0.1356838   0.0000000   0.2426449), wk =   0.0038314
  0:         k(  195) = (  -0.1163004   0.0000000   0.2079813), wk =   0.0038314
  0:         k(  196) = (  -0.0969170   0.0000000   0.1733178), wk =   0.0038314
  0:         k(  197) = (  -0.0775336   0.0000000   0.1386542), wk =   0.0038314
  0:         k(  198) = (  -0.0581502   0.0000000   0.1039907), wk =   0.0038314
  0:         k(  199) = (  -0.0387668   0.0000000   0.0693271), wk =   0.0038314
  0:         k(  200) = (  -0.0193834   0.0000000   0.0346636), wk =   0.0038314
  0:         k(  201) = (   0.0000000   0.0000000   0.0000000), wk =   0.0038314
  0:         k(  202) = (   0.0250000   0.0000000   0.0000000), wk =   0.0038314
  0:         k(  203) = (   0.0500000   0.0000000   0.0000000), wk =   0.0038314
  0:         k(  204) = (   0.0750000   0.0000000   0.0000000), wk =   0.0038314
  0:         k(  205) = (   0.1000000   0.0000000   0.0000000), wk =   0.0038314
  0:         k(  206) = (   0.1250000   0.0000000   0.0000000), wk =   0.0038314
  0:         k(  207) = (   0.1500000   0.0000000   0.0000000), wk =   0.0038314
  0:         k(  208) = (   0.1750000   0.0000000   0.0000000), wk =   0.0038314
  0:         k(  209) = (   0.2000000   0.0000000   0.0000000), wk =   0.0038314
  0:         k(  210) = (   0.2250000   0.0000000   0.0000000), wk =   0.0038314
  0:         k(  211) = (   0.2500000   0.0000000   0.0000000), wk =   0.0038314
  0:         k(  212) = (   0.2750000   0.0000000   0.0000000), wk =   0.0038314
  0:         k(  213) = (   0.3000000   0.0000000   0.0000000), wk =   0.0038314
  0:         k(  214) = (   0.3250000   0.0000000   0.0000000), wk =   0.0038314
  0:         k(  215) = (   0.3500000   0.0000000   0.0000000), wk =   0.0038314
  0:         k(  216) = (   0.3750000   0.0000000   0.0000000), wk =   0.0038314
  0:         k(  217) = (   0.4000000   0.0000000   0.0000000), wk =   0.0038314
  0:         k(  218) = (   0.4250000   0.0000000   0.0000000), wk =   0.0038314
  0:         k(  219) = (   0.4500000   0.0000000   0.0000000), wk =   0.0038314
  0:         k(  220) = (   0.4750000   0.0000000   0.0000000), wk =   0.0038314
  0:         k(  221) = (   0.5000000   0.0000000   0.0000000), wk =   0.0038314
  0:         k(  222) = (   0.5000000   0.0250000   0.0000000), wk =   0.0038314
  0:         k(  223) = (   0.5000000   0.0500000   0.0000000), wk =   0.0038314
  0:         k(  224) = (   0.5000000   0.0750000   0.0000000), wk =   0.0038314
  0:         k(  225) = (   0.5000000   0.1000000   0.0000000), wk =   0.0038314
  0:         k(  226) = (   0.5000000   0.1250000   0.0000000), wk =   0.0038314
  0:         k(  227) = (   0.5000000   0.1500000   0.0000000), wk =   0.0038314
  0:         k(  228) = (   0.5000000   0.1750000   0.0000000), wk =   0.0038314
  0:         k(  229) = (   0.5000000   0.2000000   0.0000000), wk =   0.0038314
  0:         k(  230) = (   0.5000000   0.2250000   0.0000000), wk =   0.0038314
  0:         k(  231) = (   0.5000000   0.2500000   0.0000000), wk =   0.0038314
  0:         k(  232) = (   0.5000000   0.2750000   0.0000000), wk =   0.0038314
  0:         k(  233) = (   0.5000000   0.3000000   0.0000000), wk =   0.0038314
  0:         k(  234) = (   0.5000000   0.3250000   0.0000000), wk =   0.0038314
  0:         k(  235) = (   0.5000000   0.3500000   0.0000000), wk =   0.0038314
  0:         k(  236) = (   0.5000000   0.3750000   0.0000000), wk =   0.0038314
  0:         k(  237) = (   0.5000000   0.4000000   0.0000000), wk =   0.0038314
  0:         k(  238) = (   0.5000000   0.4250000   0.0000000), wk =   0.0038314
  0:         k(  239) = (   0.5000000   0.4500000   0.0000000), wk =   0.0038314
  0:         k(  240) = (   0.5000000   0.4750000   0.0000000), wk =   0.0038314
  0:         k(  241) = (   0.5000000   0.5000000   0.0000000), wk =   0.0038314
  0:         k(  242) = (   0.4750000   0.5000000   0.0000000), wk =   0.0038314
  0:         k(  243) = (   0.4500000   0.5000000   0.0000000), wk =   0.0038314
  0:         k(  244) = (   0.4250000   0.5000000   0.0000000), wk =   0.0038314
  0:         k(  245) = (   0.4000000   0.5000000   0.0000000), wk =   0.0038314
  0:         k(  246) = (   0.3750000   0.5000000   0.0000000), wk =   0.0038314
  0:         k(  247) = (   0.3500000   0.5000000   0.0000000), wk =   0.0038314
  0:         k(  248) = (   0.3250000   0.5000000   0.0000000), wk =   0.0038314
  0:         k(  249) = (   0.3000000   0.5000000   0.0000000), wk =   0.0038314
  0:         k(  250) = (   0.2750000   0.5000000   0.0000000), wk =   0.0038314
  0:         k(  251) = (   0.2500000   0.5000000   0.0000000), wk =   0.0038314
  0:         k(  252) = (   0.2250000   0.5000000   0.0000000), wk =   0.0038314
  0:         k(  253) = (   0.2000000   0.5000000   0.0000000), wk =   0.0038314
  0:         k(  254) = (   0.1750000   0.5000000   0.0000000), wk =   0.0038314
  0:         k(  255) = (   0.1500000   0.5000000   0.0000000), wk =   0.0038314
  0:         k(  256) = (   0.1250000   0.5000000   0.0000000), wk =   0.0038314
  0:         k(  257) = (   0.1000000   0.5000000   0.0000000), wk =   0.0038314
  0:         k(  258) = (   0.0750000   0.5000000   0.0000000), wk =   0.0038314
  0:         k(  259) = (   0.0500000   0.5000000   0.0000000), wk =   0.0038314
  0:         k(  260) = (   0.0250000   0.5000000   0.0000000), wk =   0.0038314
  0:         k(  261) = (   0.0000000   0.5000000   0.0000000), wk =   0.0038314
  0: 
  0:      Dense  grid:   420899 G-vectors     FFT dimensions: (  90,  96, 108)
  0: 
  0:      Dynamical RAM for                 wfc:      10.03 MB
  0: 
  0:      Dynamical RAM for     wfc (w. buffer):      10.03 MB
  0: 
  0:      Dynamical RAM for           str. fact:       1.00 MB
  0: 
  0:      Dynamical RAM for           local pot:       0.00 MB
  0: 
  0:      Dynamical RAM for          nlocal pot:      14.94 MB
  0: 
  0:      Dynamical RAM for                qrad:      19.94 MB
  0: 
  0:      Dynamical RAM for          rho,v,vnew:       5.57 MB
  0: 
  0:      Dynamical RAM for           G-vectors:       0.85 MB
  0: 
  0:      Dynamical RAM for          h,s,v(r/c):       1.83 MB
  0: 
  0:      Dynamical RAM for          <psi|beta>:       3.64 MB
  0: 
  0:      Dynamical RAM for                 psi:      20.06 MB
  0: 
  0:      Dynamical RAM for                hpsi:      20.06 MB
  0: 
  0:      Dynamical RAM for      wfcinit/wfcrot:      15.96 MB
  0: 
  0:      Estimated static dynamical RAM per process >      55.65 MB
  0: 
  0:      Estimated max dynamical RAM per process >     101.24 MB
  0: 
  0:      Estimated total dynamical RAM >      18.98 GB
  0: 
  0:      The potential is recalculated from file :
  0:      ./tmp/iba_pbbr3.save/charge-density
  0: 
  0:      Starting wfcs are  200 randomized atomic wfcs
  0: 
  0:      Band Structure Calculation
  0:      Davidson diagonalization with overlap
  0: 
  0:      Computing kpt #:     1  of    44 on this pool
  0:      total cpu time spent up to now is       45.5 secs
  0: 
  0:      Computing kpt #:     2  of    44 on this pool
  0:      total cpu time spent up to now is       88.2 secs
  0: 
  0:      Computing kpt #:     3  of    44 on this pool
  0:      total cpu time spent up to now is      130.8 secs
  0: 
  0:      Computing kpt #:     4  of    44 on this pool
  0:      total cpu time spent up to now is      173.5 secs
  0: 
  0:      Computing kpt #:     5  of    44 on this pool
  0:      total cpu time spent up to now is      216.5 secs
  0: 
  0:      Computing kpt #:     6  of    44 on this pool
  0:      total cpu time spent up to now is      258.6 secs
  0: 
  0:      Computing kpt #:     7  of    44 on this pool
  0:      total cpu time spent up to now is      300.7 secs
  0: 
  0:      Computing kpt #:     8  of    44 on this pool
  0:      total cpu time spent up to now is      343.5 secs
  0: 
  0:      Computing kpt #:     9  of    44 on this pool
  0:      total cpu time spent up to now is      386.4 secs
  0: 
  0:      Computing kpt #:    10  of    44 on this pool
  0:      c_bands:  1 eigenvalues not converged
  0:      total cpu time spent up to now is      429.4 secs
  0: 
  0:      Computing kpt #:    11  of    44 on this pool
  0:      c_bands:  1 eigenvalues not converged
  0:      total cpu time spent up to now is      472.2 secs
  0: 
  0:      Computing kpt #:    12  of    44 on this pool
  0:      c_bands:  2 eigenvalues not converged
  0:      total cpu time spent up to now is      515.5 secs
  0: 
  0:      Computing kpt #:    13  of    44 on this pool
  0:      total cpu time spent up to now is      558.4 secs
  0: 
  0:      Computing kpt #:    14  of    44 on this pool
  0:      total cpu time spent up to now is      601.4 secs
  0: 
  0:      Computing kpt #:    15  of    44 on this pool
  0:      total cpu time spent up to now is      644.5 secs
  0: 
  0:      Computing kpt #:    16  of    44 on this pool
  0:      total cpu time spent up to now is      687.8 secs
  0: 
  0:      Computing kpt #:    17  of    44 on this pool
  0:      total cpu time spent up to now is      730.9 secs
  0: 
  0:      Computing kpt #:    18  of    44 on this pool
  0:      total cpu time spent up to now is      774.1 secs
  0: 
  0:      Computing kpt #:    19  of    44 on this pool
  0:      total cpu time spent up to now is      815.6 secs
  0: 
  0:      Computing kpt #:    20  of    44 on this pool
  0:      total cpu time spent up to now is      858.4 secs
  0: 
  0:      Computing kpt #:    21  of    44 on this pool
  0:      total cpu time spent up to now is      901.3 secs
  0: 
  0:      Computing kpt #:    22  of    44 on this pool
  0:      total cpu time spent up to now is      944.0 secs
  0: 
  0:      Computing kpt #:    23  of    44 on this pool
  0:      total cpu time spent up to now is      986.0 secs
  0: 
  0:      Computing kpt #:    24  of    44 on this pool
  0:      total cpu time spent up to now is     1027.9 secs
  0: 
  0:      Computing kpt #:    25  of    44 on this pool
  0:      total cpu time spent up to now is     1069.8 secs
  0: 
  0:      Computing kpt #:    26  of    44 on this pool
  0:      total cpu time spent up to now is     1112.7 secs
  0: 
  0:      Computing kpt #:    27  of    44 on this pool
  0:      total cpu time spent up to now is     1154.6 secs
  0: 
  0:      Computing kpt #:    28  of    44 on this pool
  0:      total cpu time spent up to now is     1196.5 secs
  0: 
  0:      Computing kpt #:    29  of    44 on this pool
  0:      total cpu time spent up to now is     1238.6 secs
  0: 
  0:      Computing kpt #:    30  of    44 on this pool
  0:      total cpu time spent up to now is     1280.3 secs
  0: 
  0:      Computing kpt #:    31  of    44 on this pool
  0:      total cpu time spent up to now is     1321.0 secs
  0: 
  0:      Computing kpt #:    32  of    44 on this pool
  0:      total cpu time spent up to now is     1362.5 secs
  0: 
  0:      Computing kpt #:    33  of    44 on this pool
  0:      total cpu time spent up to now is     1405.2 secs
  0: 
  0:      Computing kpt #:    34  of    44 on this pool
  0:      total cpu time spent up to now is     1447.3 secs
  0: 
  0:      Computing kpt #:    35  of    44 on this pool
  0:      c_bands:  1 eigenvalues not converged
  0:      total cpu time spent up to now is     1489.9 secs
  0: 
  0:      Computing kpt #:    36  of    44 on this pool
  0:      total cpu time spent up to now is     1533.1 secs
  0: 
  0:      Computing kpt #:    37  of    44 on this pool
  0:      total cpu time spent up to now is     1575.9 secs
  0: 
  0:      Computing kpt #:    38  of    44 on this pool
  0:      c_bands:  1 eigenvalues not converged
  0:      total cpu time spent up to now is     1618.1 secs
  0: 
  0:      Computing kpt #:    39  of    44 on this pool
  0:      c_bands:  4 eigenvalues not converged
  0:      total cpu time spent up to now is     1661.0 secs
  0: 
  0:      Computing kpt #:    40  of    44 on this pool
  0:      c_bands:  3 eigenvalues not converged
  0:      total cpu time spent up to now is     1703.1 secs
  0: 
  0:      Computing kpt #:    41  of    44 on this pool
  0:      c_bands:  3 eigenvalues not converged
  0:      total cpu time spent up to now is     1746.0 secs
  0: 
  0:      Computing kpt #:    42  of    44 on this pool
  0:      c_bands:  3 eigenvalues not converged
  0:      total cpu time spent up to now is     1788.1 secs
  0: 
  0:      Computing kpt #:    43  of    44 on this pool
  0:      c_bands:  2 eigenvalues not converged
  0:      total cpu time spent up to now is     1830.7 secs
  0: 
  0:      Computing kpt #:    44  of    44 on this pool
  0:      c_bands:  2 eigenvalues not converged
  0:      total cpu time spent up to now is     1873.7 secs
  0: 
  0:      ethr =  1.00E-13,  avg # of iterations =101.4
  0: 
  0:      total cpu time spent up to now is     1873.7 secs
  0: 
  0:      End of band structure calculation
  0: 
  0:           k = 0.0000 0.0000 0.0000 ( 52655 PWs)   bands (ev):
  0: 
  0:    -17.1680 -17.1680 -17.1612 -17.1612 -15.0225 -15.0225 -15.0158 -15.0158
  0:    -14.9995 -14.9995 -14.9931 -14.9931 -13.2984 -13.2984 -13.2616 -13.2616
  0:    -12.5618 -12.5618 -12.5354 -12.5354 -12.5089 -12.5089 -12.4526 -12.4526
  0:    -12.4229 -12.4229 -12.4095 -12.4095 -11.9004 -11.9004 -11.8685 -11.8685
  0:    -11.5793 -11.5793 -11.3465 -11.3465 -11.2099 -11.2099 -11.1239 -11.1239
  0:    -10.9873 -10.9873 -10.9206 -10.9206  -9.4253  -9.4253  -9.4098  -9.4098
  0:     -7.8512  -7.8512  -7.8048  -7.8048  -6.5571  -6.5571  -6.5451  -6.5451
  0:     -6.3120  -6.3120  -6.2838  -6.2838  -4.9428  -4.9428  -4.8802  -4.8802
  0:     -4.7365  -4.7365  -4.7326  -4.7326  -3.5440  -3.5440  -3.4893  -3.4893
  0:     -3.0658  -3.0658  -2.7453  -2.7453  -2.7293  -2.7293  -2.6067  -2.6067
  0:     -2.1268  -2.1268  -2.1205  -2.1205  -1.5757  -1.5757  -1.5482  -1.5482
  0:     -1.4974  -1.4974  -1.2175  -1.2175  -0.8610  -0.8610  -0.4026  -0.4026
  0:     -0.2164  -0.2164  -0.0322  -0.0322   0.0368   0.0368   0.2413   0.2413
  0:      0.3632   0.3632   0.4814   0.4814   0.5337   0.5337   0.6572   0.6572
  0:      0.7422   0.7422   0.8587   0.8587   0.8711   0.8711   0.9870   0.9870
  0:      1.0552   1.0552   1.0822   1.0822   1.1738   1.1738   1.2889   1.2889
  0:      1.3784   1.3784   1.4876   1.4876   1.5339   1.5339   1.7063   1.7063
  0:      4.9969   4.9969   5.4464   5.4464   5.9853   5.9853   6.3694   6.3694
  0:      6.6143   6.6143   6.6803   6.6803   6.9184   6.9184   7.0291   7.0291
  0:      7.2809   7.2809   8.1532   8.1532   8.4915   8.4915   8.7522   8.7522
  0:      8.7794   8.7794   8.8363   8.8363   8.9404   8.9404   9.1132   9.1132
  0:      9.1309   9.1309   9.5667   9.5667   9.7077   9.7077   9.8153   9.8153
  0:      9.9145   9.9145   9.9904   9.9904  10.1537  10.1537  10.2810  10.2810
  0:     10.3102  10.3102  10.4641  10.4641  10.6262  10.6262  10.7051  10.7051
  0:     10.8512  10.8512  10.9470  10.9470  10.9831  10.9831  11.0041  11.0041
  0: 
  0:           k = 0.0000 0.0235 0.0000 ( 52653 PWs)   bands (ev):
  0: 
  0:    -17.1680 -17.1680 -17.1613 -17.1613 -15.0225 -15.0225 -15.0158 -15.0157
  0:    -14.9995 -14.9995 -14.9932 -14.9931 -13.2983 -13.2983 -13.2616 -13.2616
  0:    -12.5620 -12.5613 -12.5355 -12.5351 -12.5093 -12.5088 -12.4532 -12.4524
  0:    -12.4229 -12.4228 -12.4095 -12.4095 -11.9005 -11.9004 -11.8687 -11.8686
  0:    -11.5789 -11.5789 -11.3476 -11.3471 -11.2098 -11.2084 -11.1241 -11.1231
  0:    -10.9881 -10.9871 -10.9214 -10.9203  -9.4253  -9.4253  -9.4098  -9.4098
  0:     -7.8512  -7.8512  -7.8049  -7.8049  -6.5571  -6.5571  -6.5451  -6.5451
  0:     -6.3120  -6.3120  -6.2838  -6.2838  -4.9427  -4.9426  -4.8801  -4.8801
  0:     -4.7366  -4.7365  -4.7328  -4.7328  -3.5445  -3.5441  -3.4902  -3.4896
  0:     -3.0654  -3.0649  -2.7455  -2.7454  -2.7296  -2.7295  -2.6073  -2.6072
  0:     -2.1271  -2.1269  -2.1207  -2.1206  -1.5760  -1.5751  -1.5470  -1.5467
  0:     -1.4968  -1.4954  -1.2180  -1.2180  -0.8613  -0.8602  -0.4029  -0.4010
  0:     -0.2177  -0.2155  -0.0336  -0.0329   0.0310   0.0426   0.2346   0.2460
  0:      0.3522   0.3734   0.4807   0.4833   0.5274   0.5387   0.6577   0.6588
  0:      0.7415   0.7433   0.8556   0.8615   0.8714   0.8717   0.9847   0.9888
  0:      1.0532   1.0545   1.0814   1.0840   1.1719   1.1752   1.2878   1.2905
  0:      1.3741   1.3818   1.4857   1.4902   1.5347   1.5350   1.7035   1.7097
  0:      4.9969   4.9978   5.4442   5.4467   5.9840   5.9870   6.3686   6.3703
  0:      6.6094   6.6174   6.6705   6.6828   6.9158   6.9207   7.0172   7.0312
  0:      7.2856   7.2954   8.1496   8.1509   8.4901   8.4914   8.7511   8.7536
  0:      8.7806   8.7833   8.8335   8.8374   8.9402   8.9444   9.1125   9.1154
  0:      9.1315   9.1338   9.5625   9.5671   9.7061   9.7081   9.8055   9.8229
  0:      9.9070   9.9168   9.9925   9.9985  10.1502  10.1515  10.2795  10.2816
  0:     10.3017  10.3166  10.4607  10.4635  10.6223  10.6264  10.7080  10.7099
  0:     10.8534  10.8537  10.9410  10.9423  10.9833  10.9879  11.0074  11.0083
  0: 
  0:           k = 0.0000 0.0471 0.0000 ( 52607 PWs)   bands (ev):
  0: 
  0:    -17.1679 -17.1679 -17.1613 -17.1613 -15.0225 -15.0225 -15.0158 -15.0158
  0:    -14.9995 -14.9994 -14.9933 -14.9931 -13.2982 -13.2981 -13.2618 -13.2618
  0:    -12.5621 -12.5607 -12.5354 -12.5347 -12.5097 -12.5087 -12.4541 -12.4526
  0:    -12.4228 -12.4226 -12.4096 -12.4094 -11.9005 -11.9004 -11.8693 -11.8691
  0:    -11.5778 -11.5778 -11.3502 -11.3493 -11.2081 -11.2053 -11.1234 -11.1214
  0:    -10.9895 -10.9874 -10.9228 -10.9206  -9.4250  -9.4250  -9.4096  -9.4096
  0:     -7.8511  -7.8511  -7.8051  -7.8051  -6.5570  -6.5570  -6.5450  -6.5450
  0:     -6.3118  -6.3118  -6.2839  -6.2839  -4.9423  -4.9421  -4.8797  -4.8796
  0:     -4.7369  -4.7368  -4.7334  -4.7333  -3.5454  -3.5447  -3.4922  -3.4910
  0:     -3.0638  -3.0629  -2.7461  -2.7458  -2.7306  -2.7303  -2.6092  -2.6090
  0:     -2.1276  -2.1273  -2.1211  -2.1211  -1.5763  -1.5743  -1.5428  -1.5425
  0:     -1.4936  -1.4910  -1.2195  -1.2195  -0.8609  -0.8588  -0.4018  -0.3982
  0:     -0.2193  -0.2150  -0.0374  -0.0355   0.0254   0.0475   0.2263   0.2483
  0:      0.3414   0.3821   0.4820   0.4858   0.5205   0.5421   0.6602   0.6621
  0:      0.7415   0.7446   0.8528   0.8621   0.8723   0.8745   0.9820   0.9902
  0:      1.0490   1.0513   1.0815   1.0865   1.1697   1.1757   1.2867   1.2926
  0:      1.3692   1.3844   1.4842   1.4932   1.5376   1.5384   1.7014   1.7136
  0:      4.9978   4.9999   5.4402   5.4453   5.9833   5.9890   6.3676   6.3712
  0:      6.6033   6.6165   6.6568   6.6776   6.9126   6.9231   6.9993   7.0246
  0:      7.3082   7.3251   8.1406   8.1431   8.4874   8.4900   8.7510   8.7549
  0:      8.7871   8.7915   8.8298   8.8367   8.9439   8.9517   9.1123   9.1196
  0:      9.1362   9.1393   9.5551   9.5630   9.7032   9.7075   9.7960   9.8255
  0:      9.8996   9.9111  10.0050  10.0131  10.1417  10.1437  10.2775  10.2802
  0:     10.2925  10.3208  10.4543  10.4595  10.6155  10.6234  10.7178  10.7209
  0:     10.8592  10.8600  10.9287  10.9298  10.9842  10.9934  11.0179  11.0212
  0: 
  0:           k = 0.0000 0.0706 0.0000 ( 52619 PWs)   bands (ev):
  0: 
  0:    -17.1679 -17.1679 -17.1613 -17.1613 -15.0225 -15.0224 -15.0159 -15.0158
  0:    -14.9994 -14.9994 -14.9934 -14.9931 -13.2979 -13.2978 -13.2621 -13.2621
  0:    -12.5621 -12.5600 -12.5351 -12.5341 -12.5103 -12.5088 -12.4553 -12.4530
  0:    -12.4227 -12.4223 -12.4096 -12.4093 -11.9006 -11.9005 -11.8702 -11.8700
  0:    -11.5760 -11.5760 -11.3543 -11.3529 -11.2049 -11.2009 -11.1220 -11.1191
  0:    -10.9914 -10.9883 -10.9248 -10.9214  -9.4247  -9.4247  -9.4093  -9.4093
  0:     -7.8510  -7.8509  -7.8056  -7.8056  -6.5568  -6.5568  -6.5450  -6.5450
  0:     -6.3116  -6.3116  -6.2841  -6.2840  -4.9415  -4.9413  -4.8791  -4.8790
  0:     -4.7375  -4.7374  -4.7344  -4.7342  -3.5468  -3.5457  -3.4952  -3.4934
  0:     -3.0610  -3.0596  -2.7471  -2.7467  -2.7319  -2.7315  -2.6122  -2.6119
  0:     -2.1284  -2.1281  -2.1218  -2.1217  -1.5768  -1.5739  -1.5351  -1.5350
  0:     -1.4882  -1.4847  -1.2221  -1.2220  -0.8598  -0.8567  -0.3993  -0.3942
  0:     -0.2212  -0.2150  -0.0433  -0.0395   0.0200   0.0509   0.2164   0.2477
  0:      0.3317   0.3888   0.4860   0.4884   0.5140   0.5438   0.6644   0.6666
  0:      0.7422   0.7462   0.8505   0.8606   0.8727   0.8802   0.9788   0.9909
  0:      1.0439   1.0467   1.0819   1.0889   1.1670   1.1751   1.2855   1.2952
  0:      1.3636   1.3863   1.4827   1.4958   1.5429   1.5445   1.7000   1.7179
  0:      4.9996   5.0032   5.4343   5.4422   5.9833   5.9911   6.3663   6.3719
  0:      6.5956   6.6054   6.6470   6.6664   6.9081   6.9254   6.9797   7.0134
  0:      7.3432   7.3646   8.1266   8.1302   8.4834   8.4874   8.7520   8.7562
  0:      8.7982   8.8029   8.8260   8.8349   8.9513   8.9615   9.1124   9.1259
  0:      9.1452   9.1472   9.5453   9.5548   9.6993   9.7062   9.7882   9.8224
  0:      9.8950   9.9002  10.0232  10.0316  10.1293  10.1316  10.2744  10.2748
  0:     10.2851  10.3225  10.4465  10.4535  10.6074  10.6185  10.7320  10.7354
  0:     10.8666  10.8679  10.9134  10.9145  10.9847  10.9984  11.0339  11.0411
  0: 
  0:           k = 0.0000 0.0942 0.0000 ( 52623 PWs)   bands (ev):
  0: 
  0:    -17.1678 -17.1678 -17.1614 -17.1614 -15.0224 -15.0223 -15.0160 -15.0158
  0:    -14.9994 -14.9993 -14.9935 -14.9931 -13.2976 -13.2974 -13.2625 -13.2625
  0:    -12.5619 -12.5591 -12.5346 -12.5333 -12.5110 -12.5091 -12.4568 -12.4538
  0:    -12.4224 -12.4219 -12.4096 -12.4093 -11.9007 -11.9006 -11.8714 -11.8711
  0:    -11.5735 -11.5735 -11.3594 -11.3578 -11.2006 -11.1955 -11.1199 -11.1160
  0:    -10.9938 -10.9897 -10.9273 -10.9229  -9.4242  -9.4242  -9.4089  -9.4089
  0:     -7.8507  -7.8507  -7.8063  -7.8063  -6.5566  -6.5565  -6.5449  -6.5449
  0:     -6.3112  -6.3112  -6.2843  -6.2842  -4.9405  -4.9402  -4.8782  -4.8781
  0:     -4.7384  -4.7381  -4.7357  -4.7355  -3.5486  -3.5472  -3.4992  -3.4969
  0:     -3.0569  -3.0551  -2.7485  -2.7480  -2.7336  -2.7332  -2.6163  -2.6159
  0:     -2.1295  -2.1291  -2.1227  -2.1227  -1.5773  -1.5736  -1.5243  -1.5240
  0:     -1.4811  -1.4769  -1.2257  -1.2254  -0.8576  -0.8536  -0.3954  -0.3892
  0:     -0.2233  -0.2155  -0.0510  -0.0447   0.0145   0.0517   0.2052   0.2435
  0:      0.3239   0.3942   0.4908   0.4927   0.5086   0.5444   0.6694   0.6717
  0:      0.7439   0.7478   0.8486   0.8581   0.8729   0.8875   0.9753   0.9905
  0:      1.0389   1.0414   1.0822   1.0909   1.1640   1.1731   1.2840   1.2981
  0:      1.3576   1.3876   1.4807   1.4973   1.5511   1.5534   1.6994   1.7226
  0:      5.0022   5.0076   5.4264   5.4376   5.9841   5.9930   6.3639   6.3720
  0:      6.5831   6.5847   6.6441   6.6531   6.9018   6.9271   6.9620   7.0010
  0:      7.3856   7.4095   8.1084   8.1129   8.4785   8.4837   8.7537   8.7577
  0:      8.8116   8.8136   8.8265   8.8334   8.9616   8.9731   9.1124   9.1335
  0:      9.1577   9.1582   9.5340   9.5432   9.6945   9.7046   9.7822   9.8150
  0:      9.8872   9.8925  10.0421  10.0517  10.1146  10.1176  10.2651  10.2709
  0:     10.2797  10.3222  10.4388  10.4470  10.5999  10.6129  10.7472  10.7504
  0:     10.8731  10.8735  10.8950  10.9012  10.9864  11.0047  11.0540  11.0657
  0: 
  0:           k = 0.0000 0.1177 0.0000 ( 52625 PWs)   bands (ev):
  0: 
  0:    -17.1677 -17.1677 -17.1615 -17.1615 -15.0223 -15.0222 -15.0161 -15.0159
  0:    -14.9993 -14.9992 -14.9936 -14.9932 -13.2971 -13.2970 -13.2630 -13.2630
  0:    -12.5616 -12.5581 -12.5339 -12.5325 -12.5118 -12.5096 -12.4587 -12.4549
  0:    -12.4221 -12.4215 -12.4096 -12.4092 -11.9009 -11.9007 -11.8729 -11.8725
  0:    -11.5703 -11.5703 -11.3654 -11.3637 -11.1952 -11.1891 -11.1170 -11.1123
  0:    -10.9968 -10.9917 -10.9303 -10.9248  -9.4236  -9.4236  -9.4084  -9.4084
  0:     -7.8504  -7.8504  -7.8071  -7.8071  -6.5563  -6.5562  -6.5449  -6.5448
  0:     -6.3108  -6.3108  -6.2845  -6.2845  -4.9392  -4.9388  -4.8772  -4.8771
  0:     -4.7394  -4.7389  -4.7371  -4.7371  -3.5509  -3.5491  -3.5041  -3.5013
  0:     -3.0517  -3.0495  -2.7503  -2.7498  -2.7356  -2.7351  -2.6215  -2.6211
  0:     -2.1308  -2.1303  -2.1239  -2.1239  -1.5774  -1.5731  -1.5107  -1.5102
  0:     -1.4728  -1.4681  -1.2303  -1.2299  -0.8541  -0.8492  -0.3902  -0.3834
  0:     -0.2256  -0.2166  -0.0601  -0.0507   0.0086   0.0495   0.1925   0.2352
  0:      0.3189   0.3991   0.4929   0.5006   0.5057   0.5446   0.6740   0.6772
  0:      0.7470   0.7495   0.8467   0.8551   0.8731   0.8958   0.9714   0.9887
  0:      1.0353   1.0359   1.0824   1.0925   1.1602   1.1697   1.2818   1.3012
  0:      1.3511   1.3884   1.4782   1.4973   1.5621   1.5652   1.6998   1.7277
  0:      5.0055   5.0134   5.4167   5.4315   5.9858   5.9947   6.3598   6.3710
  0:      6.5564   6.5691   6.6422   6.6435   6.8934   6.9274   6.9478   6.9891
  0:      7.4316   7.4569   8.0870   8.0922   8.4728   8.4793   8.7558   8.7593
  0:      8.8136   8.8201   8.8398   8.8410   8.9741   8.9862   9.1120   9.1410
  0:      9.1715   9.1749   9.5222   9.5296   9.6891   9.7030   9.7768   9.8048
  0:      9.8743   9.8911  10.0550  10.0694  10.1009  10.1076  10.2558  10.2659
  0:     10.2738  10.3197  10.4323  10.4414  10.5940  10.6076  10.7591  10.7622
  0:     10.8706  10.8737  10.8794  10.8947  10.9909  11.0137  11.0777  11.0937
  0: 
  0:           k = 0.0000 0.1413 0.0000 ( 52613 PWs)   bands (ev):
  0: 
  0:    -17.1676 -17.1676 -17.1616 -17.1616 -15.0222 -15.0220 -15.0162 -15.0160
  0:    -14.9992 -14.9991 -14.9937 -14.9932 -13.2965 -13.2964 -13.2636 -13.2636
  0:    -12.5611 -12.5569 -12.5331 -12.5315 -12.5126 -12.5102 -12.4608 -12.4563
  0:    -12.4217 -12.4210 -12.4096 -12.4092 -11.9010 -11.9008 -11.8746 -11.8741
  0:    -11.5666 -11.5666 -11.3721 -11.3703 -11.1891 -11.1822 -11.1135 -11.1079
  0:    -11.0002 -10.9941 -10.9338 -10.9274  -9.4228  -9.4228  -9.4079  -9.4078
  0:     -7.8500  -7.8500  -7.8082  -7.8081  -6.5559  -6.5559  -6.5448  -6.5448
  0:     -6.3102  -6.3102  -6.2849  -6.2848  -4.9376  -4.9371  -4.8762  -4.8760
  0:     -4.7408  -4.7400  -4.7389  -4.7387  -3.5534  -3.5514  -3.5097  -3.5064
  0:     -3.0453  -3.0429  -2.7527  -2.7521  -2.7377  -2.7372  -2.6276  -2.6272
  0:     -2.1322  -2.1317  -2.1252  -2.1252  -1.5767  -1.5721  -1.4952  -1.4945
  0:     -1.4638  -1.4586  -1.2360  -1.2353  -0.8489  -0.8430  -0.3836  -0.3769
  0:     -0.2280  -0.2183  -0.0702  -0.0575   0.0019   0.0436   0.1781   0.2226
  0:      0.3174   0.4049   0.4947   0.5010   0.5135   0.5447   0.6775   0.6827
  0:      0.7511   0.7516   0.8446   0.8518   0.8735   0.9048   0.9672   0.9853
  0:      1.0304   1.0338   1.0823   1.0935   1.1556   1.1651   1.2790   1.3040
  0:      1.3446   1.3891   1.4752   1.4957   1.5753   1.5795   1.7010   1.7330
  0:      5.0094   5.0204   5.4051   5.4241   5.9885   5.9960   6.3529   6.3681
  0:      6.5301   6.5495   6.6360   6.6427   6.8833   6.9256   6.9374   6.9785
  0:      7.4786   7.5044   8.0633   8.0689   8.4667   8.4747   8.7578   8.7608
  0:      8.8108   8.8193   8.8579   8.8615   8.9883   9.0003   9.1108   9.1468
  0:      9.1892   9.1951   9.5107   9.5157   9.6834   9.7014   9.7704   9.7931
  0:      9.8638   9.8906  10.0513  10.0686  10.1037  10.1119  10.2479  10.2603
  0:     10.2672  10.3152  10.4275  10.4373  10.5902  10.6030  10.7629  10.7667
  0:     10.8586  10.8623  10.8791  10.8936  10.9991  11.0254  11.1044  11.1242
  0: 
  0:           k = 0.0000 0.1648 0.0000 ( 52611 PWs)   bands (ev):
  0: 
  0:    -17.1674 -17.1674 -17.1617 -17.1617 -15.0221 -15.0219 -15.0163 -15.0161
  0:    -14.9991 -14.9990 -14.9939 -14.9933 -13.2958 -13.2957 -13.2644 -13.2644
  0:    -12.5604 -12.5556 -12.5321 -12.5305 -12.5134 -12.5109 -12.4631 -12.4579
  0:    -12.4213 -12.4205 -12.4096 -12.4091 -11.9012 -11.9009 -11.8764 -11.8759
  0:    -11.5623 -11.5623 -11.3792 -11.3775 -11.1824 -11.1748 -11.1094 -11.1030
  0:    -11.0041 -10.9971 -10.9378 -10.9304  -9.4219  -9.4219  -9.4073  -9.4072
  0:     -7.8495  -7.8495  -7.8093  -7.8093  -6.5555  -6.5554  -6.5448  -6.5447
  0:     -6.3096  -6.3096  -6.2853  -6.2852  -4.9357  -4.9352  -4.8751  -4.8749
  0:     -4.7425  -4.7412  -4.7409  -4.7402  -3.5562  -3.5539  -3.5158  -3.5122
  0:     -3.0377  -3.0351  -2.7555  -2.7548  -2.7400  -2.7393  -2.6346  -2.6342
  0:     -2.1337  -2.1332  -2.1268  -2.1268  -1.5750  -1.5701  -1.4785  -1.4777
  0:     -1.4542  -1.4486  -1.2427  -1.2417  -0.8413  -0.8347  -0.3759  -0.3699
  0:     -0.2306  -0.2207  -0.0810  -0.0649  -0.0058   0.0343   0.1619   0.2058
  0:      0.3198   0.4124   0.4965   0.5004   0.5250   0.5451   0.6793   0.6880
  0:      0.7528   0.7577   0.8422   0.8484   0.8743   0.9140   0.9628   0.9805
  0:      1.0249   1.0344   1.0820   1.0940   1.1499   1.1594   1.2754   1.3060
  0:      1.3386   1.3896   1.4716   1.4929   1.5900   1.5957   1.7033   1.7385
  0:      5.0140   5.0288   5.3918   5.4154   5.9923   5.9967   6.3420   6.3623
  0:      6.5071   6.5293   6.6339   6.6410   6.8728   6.9207   6.9298   6.9697
  0:      7.5247   7.5505   8.0382   8.0440   8.4608   8.4703   8.7592   8.7618
  0:      8.8084   8.8168   8.8802   8.8847   9.0039   9.0151   9.1085   9.1501
  0:      9.2108   9.2184   9.5002   9.5029   9.6776   9.6998   9.7612   9.7804
  0:      9.8579   9.8912  10.0351  10.0518  10.1200  10.1268  10.2422  10.2544
  0:     10.2600  10.3088  10.4247  10.4355  10.5883  10.5993  10.7548  10.7597
  0:     10.8479  10.8577  10.8778  10.8919  11.0107  11.0395  11.1333  11.1563
  0: 
  0:           k = 0.0000 0.1883 0.0000 ( 52615 PWs)   bands (ev):
  0: 
  0:    -17.1673 -17.1673 -17.1618 -17.1618 -15.0220 -15.0217 -15.0165 -15.0162
  0:    -14.9990 -14.9988 -14.9941 -14.9935 -13.2951 -13.2949 -13.2652 -13.2652
  0:    -12.5596 -12.5541 -12.5309 -12.5296 -12.5141 -12.5118 -12.4656 -12.4597
  0:    -12.4208 -12.4200 -12.4097 -12.4092 -11.9013 -11.9011 -11.8785 -11.8779
  0:    -11.5575 -11.5575 -11.3867 -11.3850 -11.1753 -11.1671 -11.1046 -11.0975
  0:    -11.0084 -11.0006 -10.9422 -10.9340  -9.4209  -9.4209  -9.4067  -9.4066
  0:     -7.8489  -7.8489  -7.8107  -7.8106  -6.5550  -6.5549  -6.5447  -6.5446
  0:     -6.3089  -6.3089  -6.2857  -6.2857  -4.9335  -4.9330  -4.8741  -4.8739
  0:     -4.7445  -4.7432  -4.7423  -4.7417  -3.5593  -3.5566  -3.5224  -3.5184
  0:     -3.0291  -3.0264  -2.7589  -2.7579  -2.7423  -2.7416  -2.6423  -2.6419
  0:     -2.1353  -2.1347  -2.1285  -2.1284  -1.5720  -1.5669  -1.4615  -1.4607
  0:     -1.4443  -1.4384  -1.2504  -1.2490  -0.8311  -0.8238  -0.3672  -0.3626
  0:     -0.2332  -0.2239  -0.0923  -0.0728  -0.0146   0.0219   0.1436   0.1854
  0:      0.3260   0.4220   0.4984   0.5012   0.5370   0.5459   0.6794   0.6928
  0:      0.7545   0.7649   0.8394   0.8450   0.8757   0.9233   0.9580   0.9750
  0:      1.0193   1.0369   1.0812   1.0942   1.1432   1.1532   1.2710   1.3061
  0:      1.3341   1.3902   1.4677   1.4890   1.6056   1.6133   1.7065   1.7441
  0:      5.0192   5.0385   5.3769   5.4056   5.9968   5.9971   6.3266   6.3528
  0:      6.4892   6.5116   6.6347   6.6383   6.8629   6.9124   6.9238   6.9627
  0:      7.5686   7.5938   8.0124   8.0181   8.4555   8.4667   8.7597   8.7619
  0:      8.8070   8.8146   8.9041   8.9096   9.0205   9.0304   9.1049   9.1503
  0:      9.2360   9.2445   9.4909   9.4917   9.6718   9.6982   9.7493   9.7674
  0:      9.8570   9.8934  10.0155  10.0326  10.1359  10.1434  10.2386  10.2484
  0:     10.2524  10.3008  10.4242  10.4361  10.5875  10.5961  10.7361  10.7415
  0:     10.8427  10.8572  10.8752  10.8885  11.0249  11.0551  11.1619  11.1871
  0: 
  0:           k = 0.0000 0.2119 0.0000 ( 52615 PWs)   bands (ev):
  0: 
  0:    -17.1671 -17.1671 -17.1620 -17.1620 -15.0218 -15.0215 -15.0166 -15.0163
  0:    -14.9989 -14.9987 -14.9943 -14.9936 -13.2942 -13.2940 -13.2661 -13.2661
  0:    -12.5587 -12.5526 -12.5295 -12.5289 -12.5145 -12.5128 -12.4684 -12.4618
  0:    -12.4202 -12.4194 -12.4098 -12.4092 -11.9014 -11.9012 -11.8805 -11.8800
  0:    -11.5523 -11.5523 -11.3943 -11.3928 -11.1679 -11.1591 -11.0994 -11.0916
  0:    -11.0130 -11.0045 -10.9472 -10.9382  -9.4199  -9.4198  -9.4061  -9.4060
  0:     -7.8483  -7.8482  -7.8122  -7.8121  -6.5545  -6.5544  -6.5447  -6.5446
  0:     -6.3081  -6.3081  -6.2863  -6.2862  -4.9311  -4.9305  -4.8733  -4.8731
  0:     -4.7466  -4.7453  -4.7436  -4.7431  -3.5624  -3.5594  -3.5292  -3.5249
  0:     -3.0195  -3.0168  -2.7627  -2.7615  -2.7448  -2.7438  -2.6506  -2.6503
  0:     -2.1368  -2.1362  -2.1303  -2.1302  -1.5678  -1.5626  -1.4451  -1.4445
  0:     -1.4344  -1.4280  -1.2590  -1.2571  -0.8178  -0.8098  -0.3575  -0.3554
  0:     -0.2358  -0.2281  -0.1040  -0.0811  -0.0244   0.0071   0.1233   0.1620
  0:      0.3358   0.4335   0.5006   0.5033   0.5469   0.5490   0.6777   0.6970
  0:      0.7563   0.7728   0.8365   0.8417   0.8774   0.9323   0.9529   0.9695
  0:      1.0134   1.0404   1.0795   1.0944   1.1353   1.1471   1.2658   1.3032
  0:      1.3325   1.3910   1.4634   1.4843   1.6215   1.6317   1.7106   1.7499
  0:      5.0249   5.0494   5.3604   5.3946   5.9964   6.0031   6.3069   6.3392
  0:      6.4768   6.4985   6.6347   6.6375   6.8542   6.9011   6.9187   6.9569
  0:      7.6090   7.6332   7.9866   7.9921   8.4517   8.4647   8.7590   8.7606
  0:      8.8068   8.8133   8.9283   8.9355   9.0381   9.0460   9.1004   9.1476
  0:      9.2639   9.2730   9.4824   9.4828   9.6661   9.6963   9.7365   9.7551
  0:      9.8606   9.8972   9.9957  10.0136  10.1485  10.1586  10.2367  10.2421
  0:     10.2452  10.2920  10.4262  10.4393  10.5871  10.5934  10.7108  10.7166
  0:     10.8393  10.8578  10.8719  10.8840  11.0400  11.0714  11.1840  11.2079
  0: 
  0:           k = 0.0000 0.2354 0.0000 ( 52606 PWs)   bands (ev):
  0: 
  0:    -17.1669 -17.1669 -17.1622 -17.1622 -15.0216 -15.0213 -15.0168 -15.0165
  0:    -14.9987 -14.9985 -14.9945 -14.9937 -13.2933 -13.2931 -13.2672 -13.2671
  0:    -12.5577 -12.5509 -12.5285 -12.5280 -12.5144 -12.5140 -12.4712 -12.4641
  0:    -12.4196 -12.4188 -12.4099 -12.4093 -11.9016 -11.9013 -11.8827 -11.8821
  0:    -11.5467 -11.5466 -11.4021 -11.4007 -11.1603 -11.1510 -11.0937 -11.0852
  0:    -11.0181 -11.0089 -10.9525 -10.9428  -9.4187  -9.4187  -9.4055  -9.4055
  0:     -7.8475  -7.8474  -7.8138  -7.8137  -6.5539  -6.5538  -6.5447  -6.5446
  0:     -6.3072  -6.3072  -6.2869  -6.2868  -4.9284  -4.9278  -4.8728  -4.8726
  0:     -4.7487  -4.7475  -4.7449  -4.7446  -3.5655  -3.5622  -3.5360  -3.5315
  0:     -3.0090  -3.0062  -2.7672  -2.7657  -2.7471  -2.7460  -2.6593  -2.6591
  0:     -2.1384  -2.1377  -2.1321  -2.1320  -1.5621  -1.5569  -1.4300  -1.4299
  0:     -1.4244  -1.4174  -1.2684  -1.2658  -0.8009  -0.7924  -0.3483  -0.3470
  0:     -0.2385  -0.2334  -0.1159  -0.0898  -0.0349  -0.0093   0.1016   0.1365
  0:      0.3484   0.4469   0.5034   0.5066   0.5481   0.5606   0.6744   0.7006
  0:      0.7586   0.7810   0.8336   0.8387   0.8794   0.9405   0.9475   0.9647
  0:      1.0070   1.0445   1.0763   1.0948   1.1265   1.1422   1.2598   1.2972
  0:      1.3340   1.3919   1.4589   1.4789   1.6373   1.6504   1.7154   1.7556
  0:      5.0313   5.0615   5.3426   5.3826   5.9956   6.0104   6.2843   6.3224
  0:      6.4691   6.4904   6.6304   6.6414   6.8470   6.8880   6.9140   6.9515
  0:      7.6451   7.6679   7.9614   7.9663   8.4500   8.4649   8.7568   8.7577
  0:      8.8078   8.8130   8.9510   8.9613   9.0565   9.0618   9.0966   9.1430
  0:      9.2941   9.3032   9.4745   9.4756   9.6605   9.6938   9.7252   9.7442
  0:      9.8674   9.9030   9.9772   9.9956  10.1564  10.1705  10.2317  10.2354
  0:     10.2433  10.2837  10.4307  10.4452  10.5862  10.5909  10.6826  10.6888
  0:     10.8353  10.8571  10.8680  10.8789  11.0540  11.0872  11.1878  11.2003
  0: 
  0:           k = 0.0000 0.2590 0.0000 ( 52610 PWs)   bands (ev):
  0: 
  0:    -17.1667 -17.1667 -17.1623 -17.1623 -15.0214 -15.0211 -15.0170 -15.0166
  0:    -14.9986 -14.9983 -14.9947 -14.9939 -13.2923 -13.2920 -13.2683 -13.2682
  0:    -12.5565 -12.5491 -12.5286 -12.5262 -12.5152 -12.5138 -12.4743 -12.4665
  0:    -12.4190 -12.4182 -12.4101 -12.4094 -11.9016 -11.9014 -11.8848 -11.8842
  0:    -11.5408 -11.5407 -11.4100 -11.4087 -11.1525 -11.1429 -11.0875 -11.0784
  0:    -11.0235 -11.0136 -10.9583 -10.9478  -9.4174  -9.4174  -9.4051  -9.4050
  0:     -7.8466  -7.8465  -7.8155  -7.8154  -6.5533  -6.5532  -6.5447  -6.5446
  0:     -6.3063  -6.3062  -6.2875  -6.2874  -4.9255  -4.9248  -4.8726  -4.8725
  0:     -4.7507  -4.7495  -4.7463  -4.7460  -3.5686  -3.5651  -3.5428  -3.5380
  0:     -2.9976  -2.9949  -2.7724  -2.7708  -2.7490  -2.7478  -2.6682  -2.6681
  0:     -2.1398  -2.1391  -2.1340  -2.1339  -1.5551  -1.5499  -1.4179  -1.4176
  0:     -1.4139  -1.4066  -1.2784  -1.2750  -0.7804  -0.7714  -0.3420  -0.3362
  0:     -0.2413  -0.2402  -0.1282  -0.0990  -0.0460  -0.0265   0.0790   0.1096
  0:      0.3635   0.4618   0.5066   0.5110   0.5493   0.5716   0.6695   0.7033
  0:      0.7614   0.7890   0.8310   0.8363   0.8813   0.9419   0.9471   0.9614
  0:      0.9999   1.0483   1.0709   1.0960   1.1168   1.1395   1.2530   1.2893
  0:      1.3375   1.3932   1.4541   1.4731   1.6526   1.6689   1.7208   1.7611
  0:      5.0384   5.0748   5.3236   5.3696   5.9947   6.0190   6.2599   6.3036
  0:      6.4654   6.4866   6.6257   6.6455   6.8412   6.8740   6.9093   6.9458
  0:      7.6763   7.6975   7.9373   7.9415   8.4510   8.4679   8.7527   8.7527
  0:      8.8103   8.8140   8.9690   8.9850   9.0757   9.0776   9.0959   9.1385
  0:      9.3253   9.3342   9.4671   9.4690   9.6551   9.6898   9.7174   9.7351
  0:      9.8765   9.9107   9.9611   9.9795  10.1588  10.1773  10.2221  10.2278
  0:     10.2481  10.2777  10.4373  10.4531  10.5839  10.5885  10.6540  10.6605
  0:     10.8304  10.8542  10.8633  10.8736  11.0641  11.1006  11.1705  11.1708
  0: 
  0:           k = 0.0000 0.2825 0.0000 ( 52574 PWs)   bands (ev):
  0: 
  0:    -17.1665 -17.1665 -17.1625 -17.1625 -15.0212 -15.0208 -15.0172 -15.0168
  0:    -14.9984 -14.9981 -14.9949 -14.9941 -13.2912 -13.2909 -13.2694 -13.2694
  0:    -12.5552 -12.5473 -12.5292 -12.5244 -12.5165 -12.5127 -12.4774 -12.4691
  0:    -12.4184 -12.4175 -12.4103 -12.4096 -11.9017 -11.9015 -11.8869 -11.8862
  0:    -11.5346 -11.5345 -11.4178 -11.4167 -11.1447 -11.1346 -11.0811 -11.0714
  0:    -11.0292 -11.0187 -10.9644 -10.9533  -9.4161  -9.4161  -9.4047  -9.4046
  0:     -7.8455  -7.8454  -7.8173  -7.8173  -6.5527  -6.5526  -6.5448  -6.5447
  0:     -6.3053  -6.3052  -6.2883  -6.2882  -4.9223  -4.9216  -4.8729  -4.8727
  0:     -4.7525  -4.7513  -4.7476  -4.7474  -3.5716  -3.5677  -3.5493  -3.5444
  0:     -2.9854  -2.9828  -2.7787  -2.7770  -2.7504  -2.7492  -2.6771  -2.6770
  0:     -2.1411  -2.1404  -2.1358  -2.1357  -1.5467  -1.5416  -1.4089  -1.4081
  0:     -1.4034  -1.3959  -1.2887  -1.2843  -0.7560  -0.7466  -0.3368  -0.3253
  0:     -0.2486  -0.2442  -0.1406  -0.1087  -0.0572  -0.0436   0.0563   0.0822
  0:      0.3804   0.4777   0.5103   0.5165   0.5504   0.5817   0.6630   0.7052
  0:      0.7651   0.7966   0.8287   0.8345   0.8827   0.9363   0.9500   0.9619
  0:      0.9918   1.0511   1.0631   1.0985   1.1066   1.1394   1.2456   1.2805
  0:      1.3423   1.3947   1.4491   1.4671   1.6670   1.6867   1.7265   1.7664
  0:      5.0462   5.0890   5.3037   5.3556   5.9941   6.0290   6.2348   6.2840
  0:      6.4648   6.4864   6.6205   6.6490   6.8368   6.8604   6.9045   6.9395
  0:      7.7023   7.7218   7.9145   7.9180   8.4555   8.4741   8.7454   8.7466
  0:      8.8142   8.8163   8.9788   9.0033   9.0935   9.0955   9.1020   9.1373
  0:      9.3565   9.3650   9.4602   9.4632   9.6503   9.6844   9.7136   9.7277
  0:      9.8876   9.9204   9.9483   9.9662  10.1555  10.1774  10.2108  10.2190
  0:     10.2564  10.2759  10.4450  10.4622  10.5785  10.5861  10.6284  10.6336
  0:     10.8247  10.8491  10.8576  10.8684  11.0672  11.1084  11.1358  11.1424
  0: 
  0:           k = 0.0000 0.3061 0.0000 ( 52576 PWs)   bands (ev):
  0: 
  0:    -17.1663 -17.1663 -17.1627 -17.1627 -15.0210 -15.0206 -15.0174 -15.0170
  0:    -14.9983 -14.9978 -14.9951 -14.9943 -13.2900 -13.2898 -13.2707 -13.2706
  0:    -12.5539 -12.5453 -12.5302 -12.5225 -12.5179 -12.5110 -12.4806 -12.4718
  0:    -12.4178 -12.4169 -12.4105 -12.4098 -11.9016 -11.9015 -11.8889 -11.8882
  0:    -11.5281 -11.5280 -11.4256 -11.4246 -11.1369 -11.1264 -11.0743 -11.0641
  0:    -11.0351 -11.0242 -10.9708 -10.9593  -9.4148  -9.4148  -9.4044  -9.4043
  0:     -7.8444  -7.8443  -7.8192  -7.8192  -6.5520  -6.5519  -6.5450  -6.5449
  0:     -6.3042  -6.3042  -6.2890  -6.2890  -4.9189  -4.9182  -4.8736  -4.8735
  0:     -4.7540  -4.7529  -4.7489  -4.7488  -3.5743  -3.5702  -3.5555  -3.5504
  0:     -2.9724  -2.9700  -2.7863  -2.7846  -2.7510  -2.7499  -2.6860  -2.6857
  0:     -2.1422  -2.1416  -2.1376  -2.1375  -1.5372  -1.5321  -1.4027  -1.4009
  0:     -1.3941  -1.3860  -1.2990  -1.2934  -0.7281  -0.7184  -0.3337  -0.3153
  0:     -0.2586  -0.2472  -0.1530  -0.1193  -0.0679  -0.0594   0.0340   0.0550
  0:      0.3988   0.4939   0.5144   0.5229   0.5515   0.5909   0.6550   0.7061
  0:      0.7700   0.8035   0.8268   0.8335   0.8829   0.9311   0.9493   0.9659
  0:      0.9830   1.0523   1.0533   1.0951   1.1041   1.1421   1.2375   1.2710
  0:      1.3479   1.3966   1.4438   1.4609   1.6806   1.7035   1.7321   1.7713
  0:      5.0548   5.1041   5.2832   5.3409   5.9942   6.0402   6.2095   6.2645
  0:      6.4671   6.4889   6.6147   6.6506   6.8337   6.8483   6.8993   6.9323
  0:      7.7232   7.7409   7.8935   7.8960   8.4636   8.4839   8.7356   8.7383
  0:      8.8197   8.8200   8.9787   9.0118   9.1105   9.1121   9.1196   9.1425
  0:      9.3855   9.3937   9.4545   9.4590   9.6461   9.6784   9.7125   9.7212
  0:      9.9000   9.9321   9.9399   9.9566  10.1471  10.1704  10.1981  10.2087
  0:     10.2668  10.2788  10.4521  10.4705  10.5672  10.5833  10.6100  10.6109
  0:     10.8186  10.8422  10.8510  10.8630  11.0629  11.0991  11.1102  11.1122
  0: 
  0:           k = 0.0000 0.3296 0.0000 ( 52558 PWs)   bands (ev):
  0: 
  0:    -17.1660 -17.1660 -17.1630 -17.1630 -15.0208 -15.0203 -15.0177 -15.0172
  0:    -14.9981 -14.9976 -14.9953 -14.9945 -13.2888 -13.2885 -13.2720 -13.2719
  0:    -12.5524 -12.5434 -12.5316 -12.5211 -12.5186 -12.5090 -12.4838 -12.4746
  0:    -12.4171 -12.4163 -12.4108 -12.4100 -11.9015 -11.9015 -11.8908 -11.8901
  0:    -11.5215 -11.5213 -11.4334 -11.4325 -11.1290 -11.1182 -11.0673 -11.0567
  0:    -11.0412 -11.0299 -10.9775 -10.9656  -9.4135  -9.4135  -9.4042  -9.4041
  0:     -7.8431  -7.8430  -7.8212  -7.8211  -6.5513  -6.5512  -6.5451  -6.5450
  0:     -6.3031  -6.3031  -6.2899  -6.2898  -4.9154  -4.9147  -4.8748  -4.8748
  0:     -4.7553  -4.7542  -4.7501  -4.7501  -3.5767  -3.5725  -3.5611  -3.5559
  0:     -2.9589  -2.9566  -2.7951  -2.7935  -2.7508  -2.7499  -2.6946  -2.6941
  0:     -2.1433  -2.1426  -2.1392  -2.1391  -1.5265  -1.5215  -1.3998  -1.3968
  0:     -1.3857  -1.3769  -1.3087  -1.3019  -0.6967  -0.6869  -0.3339  -0.3095
  0:     -0.2679  -0.2499  -0.1653  -0.1310  -0.0774  -0.0726   0.0129   0.0289
  0:      0.4181   0.5095   0.5185   0.5304   0.5524   0.5993   0.6453   0.7058
  0:      0.7763   0.8094   0.8256   0.8333   0.8814   0.9265   0.9484   0.9704
  0:      0.9738   1.0423   1.0517   1.0847   1.1105   1.1469   1.2288   1.2612
  0:      1.3543   1.3989   1.4382   1.4546   1.6931   1.7191   1.7373   1.7755
  0:      5.0643   5.1199   5.2622   5.3254   5.9957   6.0527   6.1843   6.2457
  0:      6.4721   6.4940   6.6081   6.6491   6.8321   6.8392   6.8936   6.9242
  0:      7.7396   7.7555   7.8742   7.8760   8.4755   8.4971   8.7231   8.7275
  0:      8.8250   8.8269   8.9709   9.0089   9.1288   9.1294   9.1424   9.1544
  0:      9.4085   9.4166   9.4530   9.4595   9.6424   9.6724   9.7126   9.7149
  0:      9.9124   9.9379   9.9438   9.9535  10.1346  10.1579  10.1842  10.1973
  0:     10.2785  10.2851  10.4558  10.4738  10.5533  10.5786  10.5941  10.6023
  0:     10.8123  10.8339  10.8438  10.8573  11.0534  11.0684  11.0841  11.1007
  0: 
  0:           k = 0.0000 0.3531 0.0000 ( 52538 PWs)   bands (ev):
  0: 
  0:    -17.1658 -17.1658 -17.1632 -17.1632 -15.0205 -15.0201 -15.0179 -15.0174
  0:    -14.9979 -14.9974 -14.9956 -14.9947 -13.2875 -13.2872 -13.2733 -13.2732
  0:    -12.5508 -12.5413 -12.5331 -12.5219 -12.5171 -12.5067 -12.4871 -12.4776
  0:    -12.4165 -12.4156 -12.4111 -12.4104 -11.9014 -11.9013 -11.8925 -11.8919
  0:    -11.5147 -11.5145 -11.4412 -11.4404 -11.1212 -11.1100 -11.0601 -11.0503
  0:    -11.0464 -11.0359 -10.9845 -10.9722  -9.4121  -9.4121  -9.4042  -9.4041
  0:     -7.8417  -7.8417  -7.8232  -7.8231  -6.5506  -6.5506  -6.5454  -6.5453
  0:     -6.3020  -6.3019  -6.2908  -6.2907  -4.9117  -4.9110  -4.8767  -4.8766
  0:     -4.7562  -4.7551  -4.7514  -4.7513  -3.5788  -3.5743  -3.5662  -3.5609
  0:     -2.9448  -2.9428  -2.8052  -2.8038  -2.7498  -2.7492  -2.7027  -2.7020
  0:     -2.1441  -2.1435  -2.1407  -2.1406  -1.5148  -1.5100  -1.4007  -1.3966
  0:     -1.3778  -1.3686  -1.3173  -1.3093  -0.6625  -0.6526  -0.3394  -0.3156
  0:     -0.2693  -0.2513  -0.1772  -0.1440  -0.0850  -0.0821  -0.0067   0.0045
  0:      0.4381   0.5227   0.5230   0.5392   0.5530   0.6074   0.6340   0.7041
  0:      0.7840   0.8144   0.8250   0.8337   0.8777   0.9217   0.9484   0.9657
  0:      0.9741   1.0309   1.0498   1.0747   1.1186   1.1534   1.2196   1.2511
  0:      1.3612   1.4016   1.4324   1.4485   1.7045   1.7331   1.7416   1.7790
  0:      5.0747   5.1363   5.2412   5.3092   5.9989   6.0662   6.1595   6.2275
  0:      6.4795   6.5015   6.6003   6.6436   6.8320   6.8341   6.8875   6.9153
  0:      7.7523   7.7664   7.8567   7.8580   8.4910   8.5133   8.7081   8.7145
  0:      8.8314   8.8359   8.9587   8.9977   9.1464   9.1486   9.1652   9.1705
  0:      9.4199   9.4290   9.4606   9.4690   9.6395   9.6671   9.7080   9.7126
  0:      9.9221   9.9452   9.9475   9.9657  10.1185  10.1418  10.1690  10.1846
  0:     10.2909  10.2934  10.4530  10.4661  10.5468  10.5715  10.5886  10.5984
  0:     10.8065  10.8254  10.8363  10.8510  11.0412  11.0420  11.0603  11.0860
  0: 
  0:           k = 0.0000 0.3767 0.0000 ( 52548 PWs)   bands (ev):
  0: 
  0:    -17.1655 -17.1655 -17.1634 -17.1634 -15.0203 -15.0198 -15.0181 -15.0177
  0:    -14.9977 -14.9971 -14.9958 -14.9950 -13.2861 -13.2859 -13.2747 -13.2746
  0:    -12.5492 -12.5393 -12.5348 -12.5235 -12.5147 -12.5041 -12.4905 -12.4805
  0:    -12.4158 -12.4150 -12.4115 -12.4107 -11.9011 -11.9011 -11.8941 -11.8936
  0:    -11.5077 -11.5075 -11.4489 -11.4482 -11.1134 -11.1019 -11.0549 -11.0531
  0:    -11.0420 -11.0406 -10.9917 -10.9792  -9.4109  -9.4108  -9.4044  -9.4043
  0:     -7.8402  -7.8402  -7.8252  -7.8251  -6.5500  -6.5499  -6.5457  -6.5456
  0:     -6.3008  -6.3008  -6.2918  -6.2917  -4.9078  -4.9071  -4.8790  -4.8788
  0:     -4.7567  -4.7558  -4.7526  -4.7524  -3.5804  -3.5757  -3.5706  -3.5653
  0:     -2.9304  -2.9285  -2.8166  -2.8153  -2.7480  -2.7476  -2.7102  -2.7095
  0:     -2.1447  -2.1442  -2.1420  -2.1419  -1.5023  -1.4976  -1.4052  -1.4006
  0:     -1.3703  -1.3609  -1.3245  -1.3155  -0.6258  -0.6162  -0.3519  -0.3352
  0:     -0.2618  -0.2506  -0.1886  -0.1578  -0.0900  -0.0876  -0.0244  -0.0176
  0:      0.4582   0.5265   0.5335   0.5486   0.5536   0.6163   0.6213   0.7007
  0:      0.7931   0.8187   0.8252   0.8342   0.8723   0.9147   0.9497   0.9610
  0:      0.9763   1.0195   1.0472   1.0658   1.1278   1.1612   1.2100   1.2409
  0:      1.3685   1.4047   1.4262   1.4424   1.7148   1.7448   1.7455   1.7814
  0:      5.0863   5.1531   5.2204   5.2926   6.0044   6.0806   6.1354   6.2099
  0:      6.4891   6.5111   6.5911   6.6338   6.8333   6.8334   6.8809   6.9055
  0:      7.7622   7.7745   7.8410   7.8421   8.5096   8.5322   8.6906   8.6992
  0:      8.8392   8.8465   8.9441   8.9817   9.1636   9.1663   9.1856   9.1875
  0:      9.4234   9.4347   9.4726   9.4827   9.6380   9.6638   9.7003   9.7113
  0:      9.9302   9.9523   9.9596   9.9841  10.0999  10.1243  10.1525  10.1707
  0:     10.3031  10.3040  10.4423  10.4475  10.5502  10.5685  10.5874  10.5960
  0:     10.8016  10.8177  10.8288  10.8439  11.0216  11.0288  11.0417  11.0682
  0: 
  0:           k = 0.0000 0.4002 0.0000 ( 52540 PWs)   bands (ev):
  0: 
  0:    -17.1652 -17.1652 -17.1637 -17.1637 -15.0200 -15.0195 -15.0184 -15.0179
  0:    -14.9974 -14.9968 -14.9961 -14.9952 -13.2847 -13.2845 -13.2761 -13.2760
  0:    -12.5475 -12.5372 -12.5365 -12.5253 -12.5121 -12.5014 -12.4937 -12.4836
  0:    -12.4152 -12.4144 -12.4119 -12.4111 -11.9008 -11.9006 -11.8956 -11.8951
  0:    -11.5006 -11.5004 -11.4565 -11.4559 -11.1057 -11.0939 -11.0616 -11.0504
  0:    -11.0438 -11.0329 -10.9991 -10.9864  -9.4096  -9.4096  -9.4047  -9.4046
  0:     -7.8386  -7.8385  -7.8273  -7.8272  -6.5493  -6.5492  -6.5461  -6.5460
  0:     -6.2997  -6.2996  -6.2928  -6.2927  -4.9039  -4.9033  -4.8818  -4.8815
  0:     -4.7570  -4.7561  -4.7537  -4.7534  -3.5815  -3.5767  -3.5743  -3.5690
  0:     -2.9156  -2.9139  -2.8291  -2.8279  -2.7454  -2.7454  -2.7171  -2.7163
  0:     -2.1452  -2.1447  -2.1431  -2.1431  -1.4892  -1.4845  -1.4130  -1.4081
  0:     -1.3633  -1.3538  -1.3304  -1.3209  -0.5875  -0.5783  -0.3716  -0.3627
  0:     -0.2508  -0.2475  -0.1992  -0.1720  -0.0919  -0.0892  -0.0403  -0.0370
  0:      0.4779   0.5295   0.5418   0.5543   0.5561   0.6074   0.6268   0.6952
  0:      0.8032   0.8224   0.8262   0.8345   0.8665   0.9043   0.9524   0.9610
  0:      0.9766   1.0085   1.0446   1.0583   1.1377   1.1699   1.2000   1.2305
  0:      1.3760   1.4081   1.4198   1.4366   1.7238   1.7467   1.7562   1.7826
  0:      5.0989   5.1703   5.2001   5.2755   6.0123   6.0957   6.1122   6.1929
  0:      6.5005   6.5230   6.5804   6.6204   6.8363   6.8367   6.8740   6.8951
  0:      7.7705   7.7810   7.8271   7.8284   8.5306   8.5529   8.6708   8.6818
  0:      8.8484   8.8590   8.9286   8.9633   9.1794   9.1820   9.2013   9.2022
  0:      9.4274   9.4410   9.4800   9.4920   9.6390   9.6641   9.6916   9.7080
  0:      9.9404   9.9617   9.9753  10.0046  10.0793  10.1081  10.1347  10.1553
  0:     10.3141  10.3178  10.4242  10.4257  10.5581  10.5702  10.5872  10.5939
  0:     10.7985  10.8121  10.8217  10.8363  11.0079  11.0179  11.0278  11.0498
  0: 
  0:           k = 0.0000 0.4238 0.0000 ( 52520 PWs)   bands (ev):
  0: 
  0:    -17.1650 -17.1650 -17.1639 -17.1639 -15.0197 -15.0192 -15.0187 -15.0182
  0:    -14.9972 -14.9966 -14.9963 -14.9955 -13.2833 -13.2831 -13.2775 -13.2774
  0:    -12.5457 -12.5383 -12.5352 -12.5272 -12.5093 -12.4986 -12.4970 -12.4866
  0:    -12.4146 -12.4137 -12.4124 -12.4116 -11.9003 -11.9001 -11.8969 -11.8964
  0:    -11.4935 -11.4932 -11.4640 -11.4635 -11.0980 -11.0861 -11.0686 -11.0565
  0:    -11.0370 -11.0250 -11.0066 -10.9938  -9.4085  -9.4085  -9.4051  -9.4051
  0:     -7.8369  -7.8368  -7.8293  -7.8292  -6.5487  -6.5486  -6.5465  -6.5464
  0:     -6.2985  -6.2984  -6.2939  -6.2938  -4.8999  -4.8993  -4.8849  -4.8846
  0:     -4.7569  -4.7562  -4.7546  -4.7543  -3.5820  -3.5773  -3.5770  -3.5720
  0:     -2.9007  -2.8992  -2.8424  -2.8412  -2.7423  -2.7422  -2.7235  -2.7227
  0:     -2.1454  -2.1450  -2.1440  -2.1439  -1.4756  -1.4709  -1.4233  -1.4183
  0:     -1.3568  -1.3472  -1.3355  -1.3258  -0.5480  -0.5397  -0.3979  -0.3950
  0:     -0.2422  -0.2386  -0.2093  -0.1860  -0.0905  -0.0875  -0.0541  -0.0536
  0:      0.4965   0.5311   0.5487   0.5558   0.5601   0.5929   0.6392   0.6875
  0:      0.8134   0.8257   0.8278   0.8341   0.8619   0.8914   0.9563   0.9649
  0:      0.9749   0.9980   1.0430   1.0523   1.1479   1.1792   1.1898   1.2201
  0:      1.3836   1.4120   1.4130   1.4311   1.7315   1.7470   1.7650   1.7824
  0:      5.1128   5.1805   5.1877   5.2582   6.0229   6.0904   6.1113   6.1762
  0:      6.5134   6.5369   6.5683   6.6044   6.8407   6.8433   6.8668   6.8842
  0:      7.7781   7.7867   7.8147   7.8168   8.5535   8.5749   8.6491   8.6626
  0:      8.8589   8.8732   8.9131   8.9440   9.1932   9.1954   9.2110   9.2118
  0:      9.4351   9.4505   9.4794   9.4935   9.6436   9.6685   9.6821   9.7025
  0:      9.9533   9.9755   9.9869  10.0258  10.0582  10.0972  10.1154  10.1386
  0:     10.3267  10.3327  10.4005  10.4062  10.5670  10.5740  10.5866  10.5912
  0:     10.7978  10.8096  10.8151  10.8283  11.0010  11.0104  11.0177  11.0324
  0: 
  0:           k = 0.0000 0.4473 0.0000 ( 52518 PWs)   bands (ev):
  0: 
  0:    -17.1647 -17.1647 -17.1642 -17.1642 -15.0195 -15.0190 -15.0189 -15.0184
  0:    -14.9970 -14.9965 -14.9963 -14.9958 -13.2819 -13.2817 -13.2790 -13.2788
  0:    -12.5439 -12.5402 -12.5331 -12.5291 -12.5064 -12.5002 -12.4957 -12.4897
  0:    -12.4140 -12.4132 -12.4129 -12.4121 -11.8997 -11.8994 -11.8980 -11.8976
  0:    -11.4862 -11.4859 -11.4715 -11.4710 -11.0905 -11.0784 -11.0757 -11.0635
  0:    -11.0295 -11.0171 -11.0142 -11.0015  -9.4075  -9.4074  -9.4058  -9.4057
  0:     -7.8351  -7.8350  -7.8313  -7.8312  -6.5481  -6.5480  -6.5470  -6.5469
  0:     -6.2973  -6.2972  -6.2950  -6.2949  -4.8960  -4.8955  -4.8884  -4.8880
  0:     -4.7567  -4.7560  -4.7555  -4.7550  -3.5819  -3.5796  -3.5768  -3.5743
  0:     -2.8857  -2.8844  -2.8564  -2.8552  -2.7386  -2.7382  -2.7292  -2.7284
  0:     -2.1454  -2.1451  -2.1447  -2.1445  -1.4619  -1.4572  -1.4352  -1.4304
  0:     -1.3509  -1.3411  -1.3404  -1.3306  -0.5082  -0.5013  -0.4308  -0.4292
  0:     -0.2354  -0.2260  -0.2187  -0.1996  -0.0859  -0.0828  -0.0673  -0.0659
  0:      0.5126   0.5298   0.5544   0.5595   0.5607   0.5788   0.6526   0.6776
  0:      0.8219   0.8286   0.8289   0.8329   0.8612   0.8782   0.9612   0.9712
  0:      0.9713   0.9882   1.0429   1.0477   1.1584   1.1794   1.1891   1.2096
  0:      1.3912   1.4059   1.4163   1.4258   1.7378   1.7456   1.7720   1.7806
  0:      5.1280   5.1619   5.2053   5.2406   6.0362   6.0702   6.1273   6.1597
  0:      6.5271   6.5525   6.5551   6.5870   6.8462   6.8520   6.8595   6.8731
  0:      7.7859   7.7925   7.8038   7.8071   8.5775   8.5975   8.6260   8.6418
  0:      8.8708   8.8890   8.8980   8.9248   9.2043   9.2060   9.2142   9.2153
  0:      9.4464   9.4628   9.4716   9.4874   9.6515   9.6719   9.6764   9.6948
  0:      9.9678   9.9891   9.9927  10.0323  10.0522  10.0948  10.0964  10.1215
  0:     10.3413  10.3490  10.3783  10.3861  10.5751  10.5784  10.5850  10.5873
  0:     10.7997  10.8089  10.8105  10.8208  11.0008  11.0068  11.0107  11.0176
  0: 
  0:           k = 0.0000 0.4709 0.0000 ( 52524 PWs)   bands (ev):
  0: 
  0:    -17.1645 -17.1645 -17.1645 -17.1645 -15.0192 -15.0192 -15.0187 -15.0187
  0:    -14.9968 -14.9968 -14.9960 -14.9960 -13.2805 -13.2805 -13.2803 -13.2803
  0:    -12.5420 -12.5420 -12.5311 -12.5311 -12.5033 -12.5033 -12.4927 -12.4927
  0:    -12.4134 -12.4134 -12.4126 -12.4126 -11.8989 -11.8989 -11.8986 -11.8986
  0:    -11.4789 -11.4789 -11.4785 -11.4785 -11.0830 -11.0830 -11.0708 -11.0708
  0:    -11.0219 -11.0219 -11.0092 -11.0092  -9.4065  -9.4065  -9.4065  -9.4065
  0:     -7.8332  -7.8332  -7.8331  -7.8331  -6.5475  -6.5475  -6.5474  -6.5474
  0:     -6.2962  -6.2962  -6.2961  -6.2961  -4.8921  -4.8921  -4.8917  -4.8917
  0:     -4.7562  -4.7562  -4.7556  -4.7556  -3.5811  -3.5811  -3.5759  -3.5759
  0:     -2.8709  -2.8709  -2.8697  -2.8697  -2.7342  -2.7342  -2.7336  -2.7336
  0:     -2.1451  -2.1451  -2.1449  -2.1449  -1.4483  -1.4483  -1.4435  -1.4435
  0:     -1.3454  -1.3454  -1.3356  -1.3356  -0.4689  -0.4689  -0.4641  -0.4641
  0:     -0.2275  -0.2275  -0.2129  -0.2129  -0.0781  -0.0781  -0.0755  -0.0755
  0:      0.5241   0.5241   0.5585   0.5585   0.5670   0.5670   0.6657   0.6657
  0:      0.8272   0.8272   0.8311   0.8311   0.8671   0.8671   0.9664   0.9664
  0:      0.9792   0.9792   1.0445   1.0445   1.1689   1.1689   1.1993   1.1993
  0:      1.3986   1.3986   1.4209   1.4209   1.7425   1.7425   1.7772   1.7772
  0:      5.1443   5.1443   5.2230   5.2230   6.0521   6.0521   6.1434   6.1434
  0:      6.5412   6.5412   6.5695   6.5695   6.8526   6.8526   6.8622   6.8622
  0:      7.7943   7.7943   7.7992   7.7992   8.6019   8.6019   8.6200   8.6200
  0:      8.8838   8.8838   8.9063   8.9063   9.2116   9.2116   9.2130   9.2130
  0:      9.4596   9.4596   9.4761   9.4761   9.6614   9.6614   9.6857   9.6857
  0:      9.9812   9.9812  10.0124  10.0124  10.0732  10.0732  10.1060  10.1060
  0:     10.3585  10.3585  10.3669  10.3669  10.5819  10.5819  10.5822  10.5822
  0:     10.8036  10.8036  10.8145  10.8145  11.0066  11.0066  11.0070  11.0070
  0: 
  0:           k = 0.0101 0.4709 0.0214 ( 52544 PWs)   bands (ev):
  0: 
  0:    -17.1645 -17.1645 -17.1645 -17.1645 -15.0192 -15.0192 -15.0187 -15.0187
  0:    -14.9968 -14.9968 -14.9960 -14.9960 -13.2805 -13.2805 -13.2803 -13.2803
  0:    -12.5420 -12.5420 -12.5311 -12.5311 -12.5033 -12.5033 -12.4927 -12.4927
  0:    -12.4134 -12.4134 -12.4126 -12.4126 -11.8989 -11.8989 -11.8985 -11.8985
  0:    -11.4790 -11.4790 -11.4785 -11.4785 -11.0830 -11.0830 -11.0708 -11.0708
  0:    -11.0218 -11.0218 -11.0092 -11.0092  -9.4065  -9.4065  -9.4065  -9.4065
  0:     -7.8333  -7.8333  -7.8332  -7.8332  -6.5476  -6.5476  -6.5474  -6.5474
  0:     -6.2961  -6.2961  -6.2960  -6.2960  -4.8920  -4.8920  -4.8915  -4.8915
  0:     -4.7562  -4.7562  -4.7557  -4.7557  -3.5811  -3.5811  -3.5759  -3.5759
  0:     -2.8709  -2.8709  -2.8696  -2.8696  -2.7343  -2.7343  -2.7335  -2.7335
  0:     -2.1452  -2.1452  -2.1449  -2.1449  -1.4482  -1.4482  -1.4435  -1.4435
  0:     -1.3456  -1.3456  -1.3357  -1.3357  -0.4694  -0.4694  -0.4642  -0.4642
  0:     -0.2278  -0.2278  -0.2131  -0.2131  -0.0788  -0.0788  -0.0747  -0.0747
  0:      0.5233   0.5233   0.5543   0.5543   0.5712   0.5712   0.6662   0.6662
  0:      0.8246   0.8246   0.8338   0.8338   0.8672   0.8672   0.9617   0.9617
  0:      0.9836   0.9836   1.0451   1.0451   1.1688   1.1688   1.2005   1.2005
  0:      1.3989   1.3989   1.4211   1.4211   1.7423   1.7423   1.7769   1.7769
  0:      5.1438   5.1438   5.2228   5.2228   6.0509   6.0509   6.1440   6.1440
  0:      6.5414   6.5414   6.5700   6.5700   6.8516   6.8516   6.8640   6.8640
  0:      7.7951   7.7951   7.8007   7.8007   8.6009   8.6009   8.6193   8.6193
  0:      8.8825   8.8825   8.9062   8.9062   9.2109   9.2109   9.2147   9.2147
  0:      9.4599   9.4599   9.4766   9.4766   9.6616   9.6616   9.6861   9.6861
  0:      9.9809   9.9809  10.0122  10.0122  10.0711  10.0711  10.1033  10.1033
  0:     10.3587  10.3587  10.3682  10.3682  10.5760  10.5760  10.5851  10.5851
  0:     10.8036  10.8036  10.8175  10.8175  11.0062  11.0062  11.0109  11.0109
  0: 
  0:           k = 0.0203 0.4709 0.0429 ( 52552 PWs)   bands (ev):
  0: 
  0:    -17.1645 -17.1645 -17.1645 -17.1645 -15.0192 -15.0192 -15.0187 -15.0187
  0:    -14.9968 -14.9968 -14.9960 -14.9960 -13.2805 -13.2805 -13.2803 -13.2803
  0:    -12.5420 -12.5420 -12.5311 -12.5311 -12.5034 -12.5034 -12.4927 -12.4927
  0:    -12.4134 -12.4134 -12.4126 -12.4126 -11.8988 -11.8988 -11.8984 -11.8984
  0:    -11.4791 -11.4791 -11.4787 -11.4787 -11.0830 -11.0830 -11.0708 -11.0708
  0:    -11.0217 -11.0217 -11.0091 -11.0091  -9.4065  -9.4065  -9.4065  -9.4065
  0:     -7.8333  -7.8333  -7.8332  -7.8332  -6.5477  -6.5477  -6.5476  -6.5476
  0:     -6.2961  -6.2961  -6.2960  -6.2960  -4.8917  -4.8917  -4.8912  -4.8912
  0:     -4.7564  -4.7564  -4.7558  -4.7558  -3.5809  -3.5809  -3.5758  -3.5758
  0:     -2.8709  -2.8709  -2.8694  -2.8694  -2.7344  -2.7344  -2.7333  -2.7333
  0:     -2.1453  -2.1453  -2.1448  -2.1448  -1.4481  -1.4481  -1.4434  -1.4434
  0:     -1.3459  -1.3459  -1.3360  -1.3360  -0.4708  -0.4708  -0.4647  -0.4647
  0:     -0.2287  -0.2287  -0.2135  -0.2135  -0.0801  -0.0801  -0.0733  -0.0733
  0:      0.5209   0.5209   0.5478   0.5478   0.5779   0.5779   0.6675   0.6675
  0:      0.8209   0.8209   0.8378   0.8378   0.8675   0.8675   0.9537   0.9537
  0:      0.9909   0.9909   1.0467   1.0467   1.1686   1.1686   1.2041   1.2041
  0:      1.3997   1.3997   1.4217   1.4217   1.7416   1.7416   1.7762   1.7762
  0:      5.1424   5.1424   5.2224   5.2224   6.0477   6.0477   6.1454   6.1454
  0:      6.5418   6.5418   6.5716   6.5716   6.8497   6.8497   6.8681   6.8681
  0:      7.7977   7.7977   7.8050   7.8050   8.5981   8.5981   8.6171   8.6171
  0:      8.8787   8.8787   8.9055   8.9055   9.2106   9.2106   9.2176   9.2176
  0:      9.4609   9.4609   9.4779   9.4779   9.6624   9.6624   9.6872   9.6872
  0:      9.9798   9.9798  10.0114  10.0114  10.0657  10.0657  10.0958  10.0958
  0:     10.3597  10.3597  10.3717  10.3717  10.5673  10.5673  10.5853  10.5853
  0:     10.8041  10.8041  10.8244  10.8244  11.0087  11.0087  11.0195  11.0195
  0: 
  0:           k = 0.0304 0.4709 0.0643 ( 52558 PWs)   bands (ev):
  0: 
  0:    -17.1645 -17.1645 -17.1645 -17.1645 -15.0192 -15.0192 -15.0187 -15.0187
  0:    -14.9968 -14.9968 -14.9960 -14.9960 -13.2805 -13.2805 -13.2803 -13.2803
  0:    -12.5421 -12.5421 -12.5311 -12.5311 -12.5034 -12.5034 -12.4927 -12.4927
  0:    -12.4134 -12.4134 -12.4126 -12.4126 -11.8987 -11.8987 -11.8983 -11.8983
  0:    -11.4795 -11.4795 -11.4791 -11.4791 -11.0829 -11.0829 -11.0707 -11.0707
  0:    -11.0215 -11.0215 -11.0089 -11.0089  -9.4065  -9.4065  -9.4064  -9.4064
  0:     -7.8334  -7.8334  -7.8333  -7.8333  -6.5479  -6.5479  -6.5478  -6.5478
  0:     -6.2961  -6.2961  -6.2959  -6.2959  -4.8912  -4.8912  -4.8907  -4.8907
  0:     -4.7566  -4.7566  -4.7560  -4.7560  -3.5807  -3.5807  -3.5756  -3.5756
  0:     -2.8708  -2.8708  -2.8692  -2.8692  -2.7344  -2.7344  -2.7330  -2.7330
  0:     -2.1455  -2.1455  -2.1448  -2.1448  -1.4480  -1.4480  -1.4432  -1.4432
  0:     -1.3465  -1.3465  -1.3364  -1.3364  -0.4729  -0.4729  -0.4656  -0.4656
  0:     -0.2302  -0.2302  -0.2142  -0.2142  -0.0813  -0.0813  -0.0718  -0.0718
  0:      0.5170   0.5170   0.5413   0.5413   0.5847   0.5847   0.6695   0.6695
  0:      0.8175   0.8175   0.8415   0.8415   0.8683   0.8683   0.9455   0.9455
  0:      0.9979   0.9979   1.0493   1.0493   1.1687   1.1687   1.2095   1.2095
  0:      1.4011   1.4011   1.4228   1.4228   1.7404   1.7404   1.7750   1.7750
  0:      5.1401   5.1401   5.2216   5.2216   6.0429   6.0429   6.1472   6.1472
  0:      6.5421   6.5421   6.5742   6.5742   6.8480   6.8480   6.8736   6.8736
  0:      7.8025   7.8025   7.8118   7.8118   8.5936   8.5936   8.6137   8.6137
  0:      8.8725   8.8725   8.9038   8.9038   9.2113   9.2113   9.2210   9.2210
  0:      9.4626   9.4626   9.4799   9.4799   9.6637   9.6637   9.6888   9.6888
  0:      9.9769   9.9769  10.0099  10.0099  10.0581  10.0581  10.0857  10.0857
  0:     10.3614  10.3614  10.3769  10.3769  10.5564  10.5564  10.5829  10.5829
  0:     10.8046  10.8046  10.8319  10.8319  11.0153  11.0153  11.0337  11.0337
  0: 
  0:           k = 0.0405 0.4709 0.0857 ( 52562 PWs)   bands (ev):
  0: 
  0:    -17.1645 -17.1645 -17.1644 -17.1644 -15.0192 -15.0192 -15.0187 -15.0187
  0:    -14.9968 -14.9968 -14.9960 -14.9960 -13.2805 -13.2805 -13.2804 -13.2804
  0:    -12.5421 -12.5421 -12.5311 -12.5311 -12.5034 -12.5034 -12.4927 -12.4927
  0:    -12.4134 -12.4134 -12.4126 -12.4126 -11.8985 -11.8985 -11.8981 -11.8981
  0:    -11.4799 -11.4799 -11.4795 -11.4795 -11.0827 -11.0827 -11.0706 -11.0706
  0:    -11.0212 -11.0212 -11.0087 -11.0087  -9.4065  -9.4065  -9.4064  -9.4064
  0:     -7.8336  -7.8336  -7.8335  -7.8335  -6.5482  -6.5482  -6.5481  -6.5481
  0:     -6.2960  -6.2960  -6.2958  -6.2958  -4.8905  -4.8905  -4.8900  -4.8900
  0:     -4.7570  -4.7570  -4.7563  -4.7563  -3.5805  -3.5805  -3.5754  -3.5754
  0:     -2.8707  -2.8707  -2.8688  -2.8688  -2.7345  -2.7345  -2.7326  -2.7326
  0:     -2.1457  -2.1457  -2.1448  -2.1448  -1.4477  -1.4477  -1.4429  -1.4429
  0:     -1.3472  -1.3472  -1.3370  -1.3370  -0.4757  -0.4757  -0.4670  -0.4670
  0:     -0.2321  -0.2321  -0.2151  -0.2151  -0.0826  -0.0826  -0.0704  -0.0704
  0:      0.5119   0.5119   0.5351   0.5351   0.5914   0.5914   0.6720   0.6720
  0:      0.8146   0.8146   0.8445   0.8445   0.8696   0.8696   0.9379   0.9379
  0:      1.0042   1.0042   1.0526   1.0526   1.1695   1.1695   1.2162   1.2162
  0:      1.4030   1.4030   1.4243   1.4243   1.7389   1.7389   1.7733   1.7733
  0:      5.1370   5.1370   5.2205   5.2205   6.0371   6.0371   6.1491   6.1491
  0:      6.5420   6.5420   6.5779   6.5779   6.8470   6.8470   6.8802   6.8802
  0:      7.8094   7.8094   7.8210   7.8210   8.5876   8.5876   8.6089   8.6089
  0:      8.8644   8.8644   8.9008   8.9008   9.2129   9.2129   9.2246   9.2246
  0:      9.4653   9.4653   9.4825   9.4825   9.6656   9.6656   9.6904   9.6904
  0:      9.9710   9.9710  10.0073  10.0073  10.0492  10.0492  10.0770  10.0770
  0:     10.3638  10.3638  10.3829  10.3829  10.5439  10.5439  10.5784  10.5784
  0:     10.8040  10.8040  10.8370  10.8370  11.0273  11.0273  11.0536  11.0536
  0: 
  0:           k = 0.0506 0.4709 0.1071 ( 52568 PWs)   bands (ev):
  0: 
  0:    -17.1644 -17.1644 -17.1644 -17.1644 -15.0192 -15.0192 -15.0187 -15.0187
  0:    -14.9968 -14.9968 -14.9960 -14.9960 -13.2806 -13.2806 -13.2804 -13.2804
  0:    -12.5421 -12.5421 -12.5311 -12.5311 -12.5034 -12.5034 -12.4927 -12.4927
  0:    -12.4134 -12.4134 -12.4126 -12.4126 -11.8983 -11.8983 -11.8978 -11.8978
  0:    -11.4804 -11.4804 -11.4800 -11.4800 -11.0826 -11.0826 -11.0706 -11.0706
  0:    -11.0208 -11.0208 -11.0084 -11.0084  -9.4064  -9.4064  -9.4064  -9.4064
  0:     -7.8338  -7.8338  -7.8337  -7.8337  -6.5486  -6.5486  -6.5484  -6.5484
  0:     -6.2959  -6.2959  -6.2957  -6.2957  -4.8896  -4.8896  -4.8891  -4.8891
  0:     -4.7574  -4.7574  -4.7566  -4.7566  -3.5802  -3.5802  -3.5751  -3.5751
  0:     -2.8705  -2.8705  -2.8684  -2.8684  -2.7344  -2.7344  -2.7323  -2.7323
  0:     -2.1460  -2.1460  -2.1449  -2.1449  -1.4474  -1.4474  -1.4425  -1.4425
  0:     -1.3481  -1.3481  -1.3377  -1.3377  -0.4789  -0.4789  -0.4689  -0.4689
  0:     -0.2343  -0.2343  -0.2164  -0.2164  -0.0838  -0.0838  -0.0694  -0.0694
  0:      0.5057   0.5057   0.5294   0.5294   0.5979   0.5979   0.6749   0.6749
  0:      0.8123   0.8123   0.8467   0.8467   0.8716   0.8716   0.9311   0.9311
  0:      1.0095   1.0095   1.0563   1.0563   1.1713   1.1713   1.2237   1.2237
  0:      1.4054   1.4054   1.4263   1.4263   1.7369   1.7369   1.7712   1.7712
  0:      5.1335   5.1335   5.2190   5.2190   6.0309   6.0309   6.1505   6.1505
  0:      6.5414   6.5414   6.5823   6.5823   6.8468   6.8468   6.8878   6.8878
  0:      7.8186   7.8186   7.8322   7.8322   8.5804   8.5804   8.6029   8.6029
  0:      8.8543   8.8543   8.8961   8.8961   9.2151   9.2151   9.2282   9.2282
  0:      9.4688   9.4688   9.4856   9.4856   9.6679   9.6679   9.6919   9.6919
  0:      9.9617   9.9617  10.0028  10.0028  10.0404  10.0404  10.0734  10.0734
  0:     10.3665  10.3665  10.3893  10.3893  10.5299  10.5299  10.5717  10.5717
  0:     10.8021  10.8021  10.8384  10.8384  11.0453  11.0453  11.0783  11.0783
  0: 
  0:           k = 0.0608 0.4709 0.1286 ( 52590 PWs)   bands (ev):
  0: 
  0:    -17.1644 -17.1644 -17.1644 -17.1644 -15.0192 -15.0192 -15.0187 -15.0187
  0:    -14.9968 -14.9968 -14.9960 -14.9960 -13.2806 -13.2806 -13.2805 -13.2805
  0:    -12.5421 -12.5421 -12.5312 -12.5312 -12.5034 -12.5034 -12.4927 -12.4927
  0:    -12.4134 -12.4134 -12.4126 -12.4126 -11.8980 -11.8980 -11.8975 -11.8975
  0:    -11.4811 -11.4811 -11.4806 -11.4806 -11.0824 -11.0824 -11.0705 -11.0705
  0:    -11.0204 -11.0204 -11.0080 -11.0080  -9.4064  -9.4064  -9.4063  -9.4063
  0:     -7.8340  -7.8340  -7.8339  -7.8339  -6.5491  -6.5491  -6.5489  -6.5489
  0:     -6.2957  -6.2957  -6.2955  -6.2955  -4.8886  -4.8886  -4.8880  -4.8880
  0:     -4.7579  -4.7579  -4.7571  -4.7571  -3.5798  -3.5798  -3.5748  -3.5748
  0:     -2.8702  -2.8702  -2.8680  -2.8680  -2.7344  -2.7344  -2.7319  -2.7319
  0:     -2.1464  -2.1464  -2.1451  -2.1451  -1.4470  -1.4470  -1.4421  -1.4421
  0:     -1.3492  -1.3492  -1.3386  -1.3386  -0.4825  -0.4825  -0.4712  -0.4712
  0:     -0.2367  -0.2367  -0.2178  -0.2178  -0.0851  -0.0851  -0.0686  -0.0686
  0:      0.4990   0.4990   0.5241   0.5241   0.6042   0.6042   0.6779   0.6779
  0:      0.8107   0.8107   0.8479   0.8479   0.8740   0.8740   0.9257   0.9257
  0:      1.0140   1.0140   1.0599   1.0599   1.1742   1.1742   1.2318   1.2318
  0:      1.4083   1.4083   1.4287   1.4287   1.7346   1.7346   1.7687   1.7687
  0:      5.1297   5.1297   5.2171   5.2171   6.0248   6.0248   6.1512   6.1512
  0:      6.5402   6.5402   6.5868   6.5868   6.8477   6.8477   6.8962   6.8962
  0:      7.8299   7.8299   7.8455   7.8455   8.5722   8.5722   8.5959   8.5959
  0:      8.8426   8.8426   8.8897   8.8897   9.2172   9.2172   9.2314   9.2314
  0:      9.4732   9.4732   9.4894   9.4894   9.6704   9.6704   9.6931   9.6931
  0:      9.9510   9.9510   9.9940   9.9940  10.0365  10.0365  10.0747  10.0747
  0:     10.3688  10.3688  10.3953  10.3953  10.5148  10.5148  10.5631  10.5631
  0:     10.7992  10.7992  10.8363  10.8363  11.0680  11.0680  11.1062  11.1062
  0: 
  0:           k = 0.0709 0.4709 0.1500 ( 52612 PWs)   bands (ev):
  0: 
  0:    -17.1644 -17.1644 -17.1644 -17.1644 -15.0192 -15.0192 -15.0187 -15.0187
  0:    -14.9968 -14.9968 -14.9960 -14.9960 -13.2807 -13.2807 -13.2805 -13.2805
  0:    -12.5421 -12.5421 -12.5312 -12.5312 -12.5034 -12.5034 -12.4927 -12.4927
  0:    -12.4134 -12.4134 -12.4126 -12.4126 -11.8977 -11.8977 -11.8972 -11.8972
  0:    -11.4818 -11.4818 -11.4813 -11.4813 -11.0821 -11.0821 -11.0703 -11.0703
  0:    -11.0199 -11.0199 -11.0076 -11.0076  -9.4063  -9.4063  -9.4063  -9.4063
  0:     -7.8342  -7.8342  -7.8341  -7.8341  -6.5496  -6.5496  -6.5494  -6.5494
  0:     -6.2956  -6.2956  -6.2954  -6.2954  -4.8875  -4.8875  -4.8868  -4.8868
  0:     -4.7584  -4.7584  -4.7576  -4.7576  -3.5793  -3.5793  -3.5744  -3.5744
  0:     -2.8698  -2.8698  -2.8675  -2.8675  -2.7342  -2.7342  -2.7315  -2.7315
  0:     -2.1468  -2.1468  -2.1454  -2.1454  -1.4465  -1.4465  -1.4415  -1.4415
  0:     -1.3503  -1.3503  -1.3395  -1.3395  -0.4863  -0.4863  -0.4740  -0.4740
  0:     -0.2391  -0.2391  -0.2194  -0.2194  -0.0865  -0.0865  -0.0684  -0.0684
  0:      0.4920   0.4920   0.5191   0.5191   0.6103   0.6103   0.6809   0.6809
  0:      0.8096   0.8096   0.8484   0.8484   0.8766   0.8766   0.9217   0.9217
  0:      1.0177   1.0177   1.0631   1.0631   1.1782   1.1782   1.2401   1.2401
  0:      1.4117   1.4117   1.4314   1.4314   1.7320   1.7320   1.7659   1.7659
  0:      5.1257   5.1257   5.2148   5.2148   6.0190   6.0190   6.1511   6.1511
  0:      6.5383   6.5383   6.5910   6.5910   6.8501   6.8501   6.9055   6.9055
  0:      7.8433   7.8433   7.8607   7.8607   8.5635   8.5635   8.5880   8.5880
  0:      8.8292   8.8292   8.8812   8.8812   9.2188   9.2188   9.2340   9.2340
  0:      9.4780   9.4780   9.4940   9.4940   9.6728   9.6728   9.6939   9.6939
  0:      9.9411   9.9411   9.9818   9.9818  10.0389  10.0389  10.0795  10.0795
  0:     10.3701  10.3701  10.3996  10.3996  10.4995  10.4995  10.5527  10.5527
  0:     10.7959  10.7959  10.8318  10.8318  11.0937  11.0937  11.1356  11.1356
  0: 
  0:           k = 0.0810 0.4709 0.1714 ( 52622 PWs)   bands (ev):
  0: 
  0:    -17.1644 -17.1644 -17.1644 -17.1644 -15.0192 -15.0192 -15.0187 -15.0187
  0:    -14.9968 -14.9968 -14.9960 -14.9960 -13.2807 -13.2807 -13.2806 -13.2806
  0:    -12.5421 -12.5421 -12.5312 -12.5312 -12.5035 -12.5035 -12.4927 -12.4927
  0:    -12.4134 -12.4134 -12.4126 -12.4126 -11.8974 -11.8974 -11.8969 -11.8969
  0:    -11.4826 -11.4826 -11.4821 -11.4821 -11.0819 -11.0819 -11.0702 -11.0702
  0:    -11.0193 -11.0193 -11.0072 -11.0072  -9.4063  -9.4063  -9.4062  -9.4062
  0:     -7.8345  -7.8345  -7.8344  -7.8344  -6.5501  -6.5501  -6.5499  -6.5499
  0:     -6.2954  -6.2954  -6.2952  -6.2952  -4.8862  -4.8862  -4.8855  -4.8855
  0:     -4.7590  -4.7590  -4.7581  -4.7581  -3.5789  -3.5789  -3.5740  -3.5740
  0:     -2.8694  -2.8694  -2.8669  -2.8669  -2.7340  -2.7340  -2.7311  -2.7311
  0:     -2.1473  -2.1473  -2.1458  -2.1458  -1.4459  -1.4459  -1.4409  -1.4409
  0:     -1.3515  -1.3515  -1.3405  -1.3405  -0.4903  -0.4903  -0.4772  -0.4772
  0:     -0.2415  -0.2415  -0.2211  -0.2211  -0.0880  -0.0880  -0.0687  -0.0687
  0:      0.4851   0.4851   0.5144   0.5144   0.6161   0.6161   0.6838   0.6838
  0:      0.8093   0.8093   0.8483   0.8483   0.8787   0.8787   0.9195   0.9195
  0:      1.0208   1.0208   1.0657   1.0657   1.1833   1.1833   1.2482   1.2482
  0:      1.4156   1.4156   1.4346   1.4346   1.7292   1.7292   1.7627   1.7627
  0:      5.1217   5.1217   5.2122   5.2122   6.0138   6.0138   6.1501   6.1501
  0:      6.5359   6.5359   6.5941   6.5941   6.8540   6.8540   6.9152   6.9152
  0:      7.8586   7.8586   7.8775   7.8775   8.5543   8.5543   8.5793   8.5793
  0:      8.8143   8.8143   8.8707   8.8707   9.2191   9.2191   9.2356   9.2356
  0:      9.4829   9.4829   9.4998   9.4998   9.6748   9.6748   9.6945   9.6945
  0:      9.9341   9.9341   9.9698   9.9698  10.0456  10.0456  10.0867  10.0867
  0:     10.3696  10.3696  10.4004  10.4004  10.4859  10.4859  10.5412  10.5412
  0:     10.7922  10.7922  10.8258  10.8258  11.1204  11.1204  11.1648  11.1648
  0: 
  0:           k = 0.0911 0.4709 0.1928 ( 52622 PWs)   bands (ev):
  0: 
  0:    -17.1644 -17.1644 -17.1644 -17.1644 -15.0192 -15.0192 -15.0187 -15.0187
  0:    -14.9968 -14.9968 -14.9960 -14.9960 -13.2808 -13.2808 -13.2807 -13.2807
  0:    -12.5422 -12.5422 -12.5312 -12.5312 -12.5035 -12.5035 -12.4927 -12.4927
  0:    -12.4134 -12.4134 -12.4125 -12.4125 -11.8971 -11.8971 -11.8965 -11.8965
  0:    -11.4834 -11.4834 -11.4829 -11.4829 -11.0817 -11.0817 -11.0701 -11.0701
  0:    -11.0187 -11.0187 -11.0067 -11.0067  -9.4062  -9.4062  -9.4061  -9.4061
  0:     -7.8347  -7.8347  -7.8346  -7.8346  -6.5507  -6.5507  -6.5504  -6.5504
  0:     -6.2953  -6.2953  -6.2950  -6.2950  -4.8849  -4.8849  -4.8842  -4.8842
  0:     -4.7597  -4.7597  -4.7587  -4.7587  -3.5784  -3.5784  -3.5736  -3.5736
  0:     -2.8690  -2.8690  -2.8664  -2.8664  -2.7337  -2.7337  -2.7307  -2.7307
  0:     -2.1479  -2.1479  -2.1463  -2.1463  -1.4453  -1.4453  -1.4401  -1.4401
  0:     -1.3527  -1.3527  -1.3415  -1.3415  -0.4943  -0.4943  -0.4807  -0.4807
  0:     -0.2438  -0.2438  -0.2229  -0.2229  -0.0896  -0.0896  -0.0696  -0.0696
  0:      0.4786   0.4786   0.5100   0.5100   0.6216   0.6216   0.6863   0.6863
  0:      0.8095   0.8095   0.8479   0.8479   0.8802   0.8802   0.9190   0.9190
  0:      1.0235   1.0235   1.0676   1.0676   1.1892   1.1892   1.2559   1.2559
  0:      1.4199   1.4199   1.4380   1.4380   1.7263   1.7263   1.7594   1.7594
  0:      5.1180   5.1180   5.2093   5.2093   6.0094   6.0094   6.1483   6.1483
  0:      6.5331   6.5331   6.5958   6.5958   6.8597   6.8597   6.9253   6.9253
  0:      7.8756   7.8756   7.8959   7.8959   8.5450   8.5450   8.5702   8.5702
  0:      8.7981   8.7981   8.8579   8.8579   9.2180   9.2180   9.2361   9.2361
  0:      9.4877   9.4877   9.5070   9.5070   9.6764   9.6764   9.6955   9.6955
  0:      9.9310   9.9310   9.9604   9.9604  10.0552  10.0552  10.0955  10.0955
  0:     10.3662  10.3662  10.3954  10.3954  10.4766  10.4766  10.5297  10.5297
  0:     10.7882  10.7882  10.8190  10.8190  11.1465  11.1465  11.1924  11.1924
  0: 
  0:           k = 0.1013 0.4709 0.2143 ( 52638 PWs)   bands (ev):
  0: 
  0:    -17.1644 -17.1644 -17.1644 -17.1644 -15.0192 -15.0192 -15.0187 -15.0187
  0:    -14.9968 -14.9968 -14.9960 -14.9960 -13.2809 -13.2809 -13.2807 -13.2807
  0:    -12.5422 -12.5422 -12.5312 -12.5312 -12.5035 -12.5035 -12.4928 -12.4928
  0:    -12.4134 -12.4134 -12.4125 -12.4125 -11.8967 -11.8967 -11.8962 -11.8962
  0:    -11.4842 -11.4842 -11.4837 -11.4837 -11.0814 -11.0814 -11.0700 -11.0700
  0:    -11.0181 -11.0181 -11.0062 -11.0062  -9.4061  -9.4061  -9.4061  -9.4061
  0:     -7.8350  -7.8350  -7.8349  -7.8349  -6.5513  -6.5513  -6.5510  -6.5510
  0:     -6.2951  -6.2951  -6.2948  -6.2948  -4.8835  -4.8835  -4.8828  -4.8828
  0:     -4.7603  -4.7603  -4.7593  -4.7593  -3.5779  -3.5779  -3.5732  -3.5732
  0:     -2.8684  -2.8684  -2.8659  -2.8659  -2.7334  -2.7334  -2.7304  -2.7304
  0:     -2.1486  -2.1486  -2.1469  -2.1469  -1.4445  -1.4445  -1.4393  -1.4393
  0:     -1.3539  -1.3539  -1.3425  -1.3425  -0.4982  -0.4982  -0.4843  -0.4843
  0:     -0.2460  -0.2460  -0.2246  -0.2246  -0.0914  -0.0914  -0.0710  -0.0710
  0:      0.4725   0.4725   0.5060   0.5060   0.6270   0.6270   0.6885   0.6885
  0:      0.8103   0.8103   0.8472   0.8472   0.8810   0.8810   0.9200   0.9200
  0:      1.0259   1.0259   1.0687   1.0687   1.1957   1.1957   1.2629   1.2629
  0:      1.4246   1.4246   1.4417   1.4417   1.7232   1.7232   1.7558   1.7558
  0:      5.1145   5.1145   5.2062   5.2062   6.0058   6.0058   6.1459   6.1459
  0:      6.5301   6.5301   6.5957   6.5957   6.8671   6.8671   6.9354   6.9354
  0:      7.8940   7.8940   7.9155   7.9155   8.5359   8.5359   8.5610   8.5610
  0:      8.7805   8.7805   8.8426   8.8426   9.2157   9.2157   9.2352   9.2352
  0:      9.4927   9.4927   9.5148   9.5148   9.6780   9.6780   9.6969   9.6969
  0:      9.9319   9.9319   9.9544   9.9544  10.0670  10.0670  10.1058  10.1058
  0:     10.3589  10.3589  10.3838  10.3838  10.4731  10.4731  10.5196  10.5196
  0:     10.7835  10.7835  10.8113  10.8113  11.1709  11.1709  11.2174  11.2174
  0: 
  0:           k = 0.1114 0.4709 0.2357 ( 52646 PWs)   bands (ev):
  0: 
  0:    -17.1644 -17.1644 -17.1644 -17.1644 -15.0192 -15.0192 -15.0187 -15.0187
  0:    -14.9968 -14.9968 -14.9960 -14.9960 -13.2809 -13.2809 -13.2808 -13.2808
  0:    -12.5422 -12.5422 -12.5313 -12.5313 -12.5035 -12.5035 -12.4928 -12.4928
  0:    -12.4134 -12.4134 -12.4125 -12.4125 -11.8963 -11.8963 -11.8958 -11.8958
  0:    -11.4850 -11.4850 -11.4845 -11.4845 -11.0812 -11.0812 -11.0699 -11.0699
  0:    -11.0175 -11.0175 -11.0058 -11.0058  -9.4061  -9.4061  -9.4060  -9.4060
  0:     -7.8353  -7.8353  -7.8352  -7.8352  -6.5519  -6.5519  -6.5516  -6.5516
  0:     -6.2949  -6.2949  -6.2946  -6.2946  -4.8821  -4.8821  -4.8814  -4.8814
  0:     -4.7610  -4.7610  -4.7599  -4.7599  -3.5773  -3.5773  -3.5728  -3.5728
  0:     -2.8679  -2.8679  -2.8654  -2.8654  -2.7330  -2.7330  -2.7300  -2.7300
  0:     -2.1493  -2.1493  -2.1477  -2.1477  -1.4437  -1.4437  -1.4384  -1.4384
  0:     -1.3551  -1.3551  -1.3435  -1.3435  -0.5020  -0.5020  -0.4881  -0.4881
  0:     -0.2480  -0.2480  -0.2264  -0.2264  -0.0932  -0.0932  -0.0730  -0.0730
  0:      0.4670   0.4670   0.5023   0.5023   0.6320   0.6320   0.6904   0.6904
  0:      0.8116   0.8116   0.8464   0.8464   0.8815   0.8815   0.9221   0.9221
  0:      1.0281   1.0281   1.0691   1.0691   1.2027   1.2027   1.2691   1.2691
  0:      1.4295   1.4295   1.4455   1.4455   1.7202   1.7202   1.7521   1.7521
  0:      5.1115   5.1115   5.2030   5.2030   6.0030   6.0030   6.1428   6.1428
  0:      6.5270   6.5270   6.5937   6.5937   6.8759   6.8759   6.9453   6.9453
  0:      7.9136   7.9136   7.9360   7.9360   8.5274   8.5274   8.5521   8.5521
  0:      8.7617   8.7617   8.8246   8.8246   9.2126   9.2126   9.2331   9.2331
  0:      9.4982   9.4982   9.5228   9.5228   9.6801   9.6801   9.6992   9.6992
  0:      9.9361   9.9361   9.9519   9.9519  10.0806  10.0806  10.1172  10.1172
  0:     10.3473  10.3473  10.3679  10.3679  10.4741  10.4741  10.5121  10.5121
  0:     10.7775  10.7775  10.8028  10.8028  11.1928  11.1928  11.2389  11.2389
  0: 
  0:           k = 0.1215 0.4709 0.2571 ( 52650 PWs)   bands (ev):
  0: 
  0:    -17.1644 -17.1644 -17.1644 -17.1644 -15.0192 -15.0192 -15.0187 -15.0187
  0:    -14.9968 -14.9968 -14.9960 -14.9960 -13.2810 -13.2810 -13.2809 -13.2809
  0:    -12.5422 -12.5422 -12.5313 -12.5313 -12.5036 -12.5036 -12.4928 -12.4928
  0:    -12.4134 -12.4134 -12.4125 -12.4125 -11.8960 -11.8960 -11.8955 -11.8955
  0:    -11.4858 -11.4858 -11.4853 -11.4853 -11.0809 -11.0809 -11.0698 -11.0698
  0:    -11.0169 -11.0169 -11.0053 -11.0053  -9.4060  -9.4060  -9.4059  -9.4059
  0:     -7.8356  -7.8356  -7.8355  -7.8355  -6.5524  -6.5524  -6.5521  -6.5521
  0:     -6.2947  -6.2947  -6.2944  -6.2944  -4.8807  -4.8807  -4.8801  -4.8801
  0:     -4.7616  -4.7616  -4.7605  -4.7605  -3.5768  -3.5768  -3.5723  -3.5723
  0:     -2.8673  -2.8673  -2.8649  -2.8649  -2.7326  -2.7326  -2.7297  -2.7297
  0:     -2.1501  -2.1501  -2.1485  -2.1485  -1.4429  -1.4429  -1.4375  -1.4375
  0:     -1.3561  -1.3561  -1.3445  -1.3445  -0.5055  -0.5055  -0.4919  -0.4919
  0:     -0.2498  -0.2498  -0.2280  -0.2280  -0.0949  -0.0949  -0.0755  -0.0755
  0:      0.4623   0.4623   0.4991   0.4991   0.6368   0.6368   0.6918   0.6918
  0:      0.8133   0.8133   0.8453   0.8453   0.8817   0.8817   0.9247   0.9247
  0:      1.0302   1.0302   1.0688   1.0688   1.2098   1.2098   1.2743   1.2743
  0:      1.4345   1.4345   1.4494   1.4494   1.7173   1.7173   1.7485   1.7485
  0:      5.1089   5.1089   5.1998   5.1998   6.0011   6.0011   6.1393   6.1393
  0:      6.5240   6.5240   6.5902   6.5902   6.8858   6.8858   6.9548   6.9548
  0:      7.9339   7.9339   7.9570   7.9570   8.5198   8.5198   8.5439   8.5439
  0:      8.7416   8.7416   8.8039   8.8039   9.2093   9.2093   9.2301   9.2301
  0:      9.5043   9.5043   9.5301   9.5301   9.6832   9.6832   9.7022   9.7022
  0:      9.9423   9.9423   9.9530   9.9530  10.0953  10.0953  10.1295  10.1295
  0:     10.3318  10.3318  10.3503  10.3503  10.4772  10.4772  10.5078  10.5078
  0:     10.7701  10.7701  10.7932  10.7932  11.2116  11.2116  11.2564  11.2564
  0: 
  0:           k = 0.1316 0.4709 0.2786 ( 52640 PWs)   bands (ev):
  0: 
  0:    -17.1644 -17.1644 -17.1644 -17.1644 -15.0192 -15.0192 -15.0187 -15.0187
  0:    -14.9968 -14.9968 -14.9960 -14.9960 -13.2811 -13.2811 -13.2809 -13.2809
  0:    -12.5422 -12.5422 -12.5313 -12.5313 -12.5036 -12.5036 -12.4928 -12.4928
  0:    -12.4134 -12.4134 -12.4125 -12.4125 -11.8956 -11.8956 -11.8952 -11.8952
  0:    -11.4865 -11.4865 -11.4861 -11.4861 -11.0807 -11.0807 -11.0697 -11.0697
  0:    -11.0164 -11.0164 -11.0049 -11.0049  -9.4060  -9.4060  -9.4059  -9.4059
  0:     -7.8358  -7.8358  -7.8357  -7.8357  -6.5530  -6.5530  -6.5527  -6.5527
  0:     -6.2946  -6.2946  -6.2943  -6.2943  -4.8794  -4.8794  -4.8788  -4.8788
  0:     -4.7622  -4.7622  -4.7611  -4.7611  -3.5764  -3.5764  -3.5719  -3.5719
  0:     -2.8666  -2.8666  -2.8644  -2.8644  -2.7322  -2.7322  -2.7294  -2.7294
  0:     -2.1510  -2.1510  -2.1494  -2.1494  -1.4420  -1.4420  -1.4366  -1.4366
  0:     -1.3571  -1.3571  -1.3454  -1.3454  -0.5086  -0.5086  -0.4957  -0.4957
  0:     -0.2513  -0.2513  -0.2296  -0.2296  -0.0966  -0.0966  -0.0783  -0.0783
  0:      0.4581   0.4581   0.4962   0.4962   0.6413   0.6413   0.6929   0.6929
  0:      0.8153   0.8153   0.8441   0.8441   0.8820   0.8820   0.9274   0.9274
  0:      1.0324   1.0324   1.0679   1.0679   1.2169   1.2169   1.2786   1.2786
  0:      1.4395   1.4395   1.4532   1.4532   1.7145   1.7145   1.7448   1.7448
  0:      5.1067   5.1067   5.1966   5.1966   5.9999   5.9999   6.1356   6.1356
  0:      6.5214   6.5214   6.5854   6.5854   6.8964   6.8964   6.9634   6.9634
  0:      7.9546   7.9546   7.9779   7.9779   8.5135   8.5135   8.5370   8.5370
  0:      8.7204   8.7204   8.7806   8.7806   9.2065   9.2065   9.2268   9.2268
  0:      9.5111   9.5111   9.5364   9.5364   9.6871   9.6871   9.7057   9.7057
  0:      9.9485   9.9485   9.9586   9.9586  10.1099  10.1099  10.1424  10.1424
  0:     10.3146  10.3146  10.3329  10.3329  10.4810  10.4810  10.5065  10.5065
  0:     10.7609  10.7609  10.7826  10.7826  11.2272  11.2272  11.2697  11.2697
  0: 
  0:           k = 0.1418 0.4709 0.3000 ( 52652 PWs)   bands (ev):
  0: 
  0:    -17.1644 -17.1644 -17.1644 -17.1644 -15.0192 -15.0192 -15.0187 -15.0187
  0:    -14.9968 -14.9968 -14.9960 -14.9960 -13.2811 -13.2811 -13.2810 -13.2810
  0:    -12.5423 -12.5423 -12.5313 -12.5313 -12.5036 -12.5036 -12.4928 -12.4928
  0:    -12.4134 -12.4134 -12.4125 -12.4125 -11.8953 -11.8953 -11.8949 -11.8949
  0:    -11.4872 -11.4872 -11.4868 -11.4868 -11.0805 -11.0805 -11.0696 -11.0696
  0:    -11.0159 -11.0159 -11.0045 -11.0045  -9.4059  -9.4059  -9.4058  -9.4058
  0:     -7.8361  -7.8361  -7.8360  -7.8360  -6.5535  -6.5535  -6.5531  -6.5531
  0:     -6.2944  -6.2944  -6.2941  -6.2941  -4.8782  -4.8782  -4.8777  -4.8777
  0:     -4.7628  -4.7628  -4.7617  -4.7617  -3.5759  -3.5759  -3.5716  -3.5716
  0:     -2.8660  -2.8660  -2.8640  -2.8640  -2.7317  -2.7317  -2.7292  -2.7292
  0:     -2.1518  -2.1518  -2.1503  -2.1503  -1.4411  -1.4411  -1.4356  -1.4356
  0:     -1.3579  -1.3579  -1.3463  -1.3463  -0.5114  -0.5114  -0.4993  -0.4993
  0:     -0.2526  -0.2526  -0.2310  -0.2310  -0.0981  -0.0981  -0.0814  -0.0814
  0:      0.4547   0.4547   0.4938   0.4938   0.6454   0.6454   0.6937   0.6937
  0:      0.8175   0.8175   0.8428   0.8428   0.8824   0.8824   0.9300   0.9300
  0:      1.0346   1.0346   1.0666   1.0666   1.2236   1.2236   1.2818   1.2818
  0:      1.4444   1.4444   1.4568   1.4568   1.7120   1.7120   1.7414   1.7414
  0:      5.1050   5.1050   5.1937   5.1937   5.9994   5.9994   6.1317   6.1317
  0:      6.5191   6.5191   6.5796   6.5796   6.9070   6.9070   6.9711   6.9711
  0:      7.9750   7.9750   7.9982   7.9982   8.5089   8.5089   8.5320   8.5320
  0:      8.6984   8.6984   8.7551   8.7551   9.2046   9.2046   9.2235   9.2235
  0:      9.5185   9.5185   9.5417   9.5417   9.6916   9.6916   9.7091   9.7091
  0:      9.9546   9.9546   9.9678   9.9678  10.1226  10.1226  10.1552  10.1552
  0:     10.2979  10.2979  10.3170  10.3170  10.4850  10.4850  10.5075  10.5075
  0:     10.7502  10.7502  10.7709  10.7709  11.2393  11.2393  11.2788  11.2788
  0: 
  0:           k = 0.1519 0.4709 0.3214 ( 52656 PWs)   bands (ev):
  0: 
  0:    -17.1644 -17.1644 -17.1644 -17.1644 -15.0192 -15.0192 -15.0187 -15.0187
  0:    -14.9968 -14.9968 -14.9960 -14.9960 -13.2812 -13.2812 -13.2811 -13.2811
  0:    -12.5423 -12.5423 -12.5313 -12.5313 -12.5036 -12.5036 -12.4928 -12.4928
  0:    -12.4134 -12.4134 -12.4125 -12.4125 -11.8950 -11.8950 -11.8946 -11.8946
  0:    -11.4879 -11.4879 -11.4874 -11.4874 -11.0803 -11.0803 -11.0696 -11.0696
  0:    -11.0154 -11.0154 -11.0042 -11.0042  -9.4059  -9.4059  -9.4058  -9.4058
  0:     -7.8363  -7.8363  -7.8362  -7.8362  -6.5539  -6.5539  -6.5536  -6.5536
  0:     -6.2943  -6.2943  -6.2940  -6.2940  -4.8771  -4.8771  -4.8766  -4.8766
  0:     -4.7633  -4.7633  -4.7622  -4.7622  -3.5755  -3.5755  -3.5712  -3.5712
  0:     -2.8654  -2.8654  -2.8636  -2.8636  -2.7312  -2.7312  -2.7291  -2.7291
  0:     -2.1525  -2.1525  -2.1512  -2.1512  -1.4403  -1.4403  -1.4348  -1.4348
  0:     -1.3586  -1.3586  -1.3470  -1.3470  -0.5136  -0.5136  -0.5026  -0.5026
  0:     -0.2536  -0.2536  -0.2323  -0.2323  -0.0993  -0.0993  -0.0847  -0.0847
  0:      0.4519   0.4519   0.4917   0.4917   0.6491   0.6491   0.6942   0.6942
  0:      0.8199   0.8199   0.8413   0.8413   0.8828   0.8828   0.9324   0.9324
  0:      1.0370   1.0370   1.0649   1.0649   1.2299   1.2299   1.2842   1.2842
  0:      1.4489   1.4489   1.4600   1.4600   1.7098   1.7098   1.7381   1.7381
  0:      5.1037   5.1037   5.1910   5.1910   5.9994   5.9994   6.1279   6.1279
  0:      6.5174   6.5174   6.5735   6.5735   6.9172   6.9172   6.9777   6.9777
  0:      7.9944   7.9944   8.0170   8.0170   8.5064   8.5064   8.5292   8.5292
  0:      8.6761   8.6761   8.7280   8.7280   9.2035   9.2035   9.2207   9.2207
  0:      9.5260   9.5260   9.5462   9.5462   9.6959   9.6959   9.7118   9.7118
  0:      9.9616   9.9616   9.9787   9.9787  10.1312  10.1312  10.1670  10.1670
  0:     10.2832  10.2832  10.3051  10.3051  10.4892  10.4892  10.5098  10.5098
  0:     10.7383  10.7383  10.7586  10.7586  11.2482  11.2482  11.2843  11.2843
  0: 
  0:           k = 0.1620 0.4709 0.3428 ( 52672 PWs)   bands (ev):
  0: 
  0:    -17.1644 -17.1644 -17.1644 -17.1644 -15.0192 -15.0192 -15.0187 -15.0187
  0:    -14.9968 -14.9968 -14.9960 -14.9960 -13.2812 -13.2812 -13.2811 -13.2811
  0:    -12.5423 -12.5423 -12.5314 -12.5314 -12.5036 -12.5036 -12.4928 -12.4928
  0:    -12.4134 -12.4134 -12.4125 -12.4125 -11.8947 -11.8947 -11.8944 -11.8944
  0:    -11.4884 -11.4884 -11.4879 -11.4879 -11.0802 -11.0802 -11.0695 -11.0695
  0:    -11.0150 -11.0150 -11.0039 -11.0039  -9.4058  -9.4058  -9.4057  -9.4057
  0:     -7.8365  -7.8365  -7.8364  -7.8364  -6.5543  -6.5543  -6.5539  -6.5539
  0:     -6.2941  -6.2941  -6.2938  -6.2938  -4.8762  -4.8762  -4.8757  -4.8757
  0:     -4.7638  -4.7638  -4.7626  -4.7626  -3.5752  -3.5752  -3.5710  -3.5710
  0:     -2.8649  -2.8649  -2.8634  -2.8634  -2.7308  -2.7308  -2.7290  -2.7290
  0:     -2.1532  -2.1532  -2.1521  -2.1521  -1.4396  -1.4396  -1.4340  -1.4340
  0:     -1.3592  -1.3592  -1.3477  -1.3477  -0.5154  -0.5154  -0.5057  -0.5057
  0:     -0.2545  -0.2545  -0.2334  -0.2334  -0.1001  -0.1001  -0.0879  -0.0879
  0:      0.4498   0.4498   0.4901   0.4901   0.6522   0.6522   0.6945   0.6945
  0:      0.8223   0.8223   0.8397   0.8397   0.8833   0.8833   0.9343   0.9343
  0:      1.0394   1.0394   1.0629   1.0629   1.2355   1.2355   1.2857   1.2857
  0:      1.4530   1.4530   1.4628   1.4628   1.7080   1.7080   1.7352   1.7352
  0:      5.1028   5.1028   5.1887   5.1887   5.9997   5.9997   6.1245   6.1245
  0:      6.5163   6.5163   6.5674   6.5674   6.9265   6.9265   6.9830   6.9830
  0:      8.0123   8.0123   8.0335   8.0335   8.5063   8.5063   8.5292   8.5292
  0:      8.6544   8.6544   8.7004   8.7004   9.2032   9.2032   9.2185   9.2185
  0:      9.5335   9.5335   9.5498   9.5498   9.6996   9.6996   9.7135   9.7135
  0:      9.9699   9.9699   9.9903   9.9903  10.1345  10.1345  10.1749  10.1749
  0:     10.2725  10.2725  10.2987  10.2987  10.4939  10.4939  10.5124  10.5124
  0:     10.7260  10.7260  10.7463  10.7463  11.2539  11.2539  11.2867  11.2867
  0: 
  0:           k = 0.1722 0.4709 0.3643 ( 52670 PWs)   bands (ev):
  0: 
  0:    -17.1644 -17.1644 -17.1644 -17.1644 -15.0192 -15.0192 -15.0187 -15.0187
  0:    -14.9968 -14.9968 -14.9960 -14.9960 -13.2813 -13.2813 -13.2811 -13.2811
  0:    -12.5423 -12.5423 -12.5314 -12.5314 -12.5036 -12.5036 -12.4928 -12.4928
  0:    -12.4134 -12.4134 -12.4125 -12.4125 -11.8945 -11.8945 -11.8943 -11.8943
  0:    -11.4888 -11.4888 -11.4883 -11.4883 -11.0801 -11.0801 -11.0695 -11.0695
  0:    -11.0147 -11.0147 -11.0036 -11.0036  -9.4058  -9.4058  -9.4057  -9.4057
  0:     -7.8366  -7.8366  -7.8365  -7.8365  -6.5546  -6.5546  -6.5542  -6.5542
  0:     -6.2940  -6.2940  -6.2938  -6.2938  -4.8754  -4.8754  -4.8750  -4.8750
  0:     -4.7641  -4.7641  -4.7629  -4.7629  -3.5749  -3.5749  -3.5707  -3.5707
  0:     -2.8644  -2.8644  -2.8632  -2.8632  -2.7304  -2.7304  -2.7290  -2.7290
  0:     -2.1537  -2.1537  -2.1528  -2.1528  -1.4389  -1.4389  -1.4333  -1.4333
  0:     -1.3596  -1.3596  -1.3482  -1.3482  -0.5166  -0.5166  -0.5083  -0.5083
  0:     -0.2551  -0.2551  -0.2342  -0.2342  -0.1004  -0.1004  -0.0909  -0.0909
  0:      0.4481   0.4481   0.4889   0.4889   0.6548   0.6548   0.6946   0.6946
  0:      0.8248   0.8248   0.8380   0.8380   0.8837   0.8837   0.9358   0.9358
  0:      1.0419   1.0419   1.0607   1.0607   1.2402   1.2402   1.2865   1.2865
  0:      1.4565   1.4565   1.4650   1.4650   1.7066   1.7066   1.7328   1.7328
  0:      5.1022   5.1022   5.1868   5.1868   6.0002   6.0002   6.1215   6.1215
  0:      6.5158   6.5158   6.5618   6.5618   6.9344   6.9344   6.9870   6.9870
  0:      8.0278   8.0278   8.0470   8.0470   8.5087   8.5087   8.5320   8.5320
  0:      8.6345   8.6345   8.6733   8.6733   9.2034   9.2034   9.2171   9.2171
  0:      9.5403   9.5403   9.5527   9.5527   9.7023   9.7023   9.7139   9.7139
  0:      9.9792   9.9792  10.0016  10.0016  10.1333  10.1333  10.1759  10.1759
  0:     10.2684  10.2684  10.2974  10.2974  10.4990  10.4990  10.5145  10.5145
  0:     10.7142  10.7142  10.7348  10.7348  11.2571  11.2571  11.2868  11.2868
  0: 
  0:           k = 0.1823 0.4709 0.3857 ( 52670 PWs)   bands (ev):
  0: 
  0:    -17.1644 -17.1644 -17.1644 -17.1644 -15.0192 -15.0192 -15.0187 -15.0187
  0:    -14.9968 -14.9968 -14.9960 -14.9960 -13.2813 -13.2813 -13.2812 -13.2812
  0:    -12.5423 -12.5423 -12.5314 -12.5314 -12.5037 -12.5037 -12.4928 -12.4928
  0:    -12.4134 -12.4134 -12.4125 -12.4125 -11.8943 -11.8943 -11.8942 -11.8942
  0:    -11.4891 -11.4891 -11.4886 -11.4886 -11.0800 -11.0800 -11.0695 -11.0695
  0:    -11.0144 -11.0144 -11.0035 -11.0035  -9.4058  -9.4058  -9.4057  -9.4057
  0:     -7.8367  -7.8367  -7.8366  -7.8366  -6.5548  -6.5548  -6.5545  -6.5545
  0:     -6.2940  -6.2940  -6.2937  -6.2937  -4.8748  -4.8748  -4.8745  -4.8745
  0:     -4.7644  -4.7644  -4.7632  -4.7632  -3.5747  -3.5747  -3.5706  -3.5706
  0:     -2.8640  -2.8640  -2.8631  -2.8631  -2.7300  -2.7300  -2.7290  -2.7290
  0:     -2.1541  -2.1541  -2.1535  -2.1535  -1.4385  -1.4385  -1.4328  -1.4328
  0:     -1.3600  -1.3600  -1.3486  -1.3486  -0.5174  -0.5174  -0.5103  -0.5103
  0:     -0.2555  -0.2555  -0.2349  -0.2349  -0.1001  -0.1001  -0.0937  -0.0937
  0:      0.4470   0.4470   0.4880   0.4880   0.6568   0.6568   0.6946   0.6946
  0:      0.8273   0.8273   0.8361   0.8361   0.8840   0.8840   0.9369   0.9369
  0:      1.0444   1.0444   1.0584   1.0584   1.2438   1.2438   1.2870   1.2870
  0:      1.4591   1.4591   1.4665   1.4665   1.7056   1.7056   1.7310   1.7310
  0:      5.1018   5.1018   5.1854   5.1854   6.0008   6.0008   6.1192   6.1192
  0:      6.5156   6.5156   6.5573   6.5573   6.9404   6.9404   6.9897   6.9897
  0:      8.0400   8.0400   8.0568   8.0568   8.5129   8.5129   8.5367   8.5367
  0:      8.6184   8.6184   8.6483   8.6483   9.2039   9.2039   9.2162   9.2162
  0:      9.5462   9.5462   9.5547   9.5547   9.7041   9.7041   9.7135   9.7135
  0:      9.9882   9.9882  10.0113  10.0113  10.1303  10.1303  10.1701  10.1701
  0:     10.2704  10.2704  10.2988  10.2988  10.5042  10.5042  10.5156  10.5156
  0:     10.7043  10.7043  10.7252  10.7252  11.2584  11.2584  11.2856  11.2856
  0: 
  0:           k = 0.1924 0.4709 0.4071 ( 52628 PWs)   bands (ev):
  0: 
  0:    -17.1644 -17.1644 -17.1644 -17.1644 -15.0192 -15.0192 -15.0187 -15.0187
  0:    -14.9968 -14.9968 -14.9960 -14.9960 -13.2813 -13.2813 -13.2812 -13.2812
  0:    -12.5423 -12.5423 -12.5314 -12.5314 -12.5037 -12.5037 -12.4928 -12.4928
  0:    -12.4134 -12.4134 -12.4125 -12.4125 -11.8942 -11.8942 -11.8941 -11.8941
  0:    -11.4893 -11.4893 -11.4888 -11.4888 -11.0799 -11.0799 -11.0695 -11.0695
  0:    -11.0143 -11.0143 -11.0033 -11.0033  -9.4057  -9.4057  -9.4057  -9.4057
  0:     -7.8368  -7.8368  -7.8367  -7.8367  -6.5549  -6.5549  -6.5546  -6.5546
  0:     -6.2939  -6.2939  -6.2936  -6.2936  -4.8745  -4.8745  -4.8742  -4.8742
  0:     -4.7645  -4.7645  -4.7634  -4.7634  -3.5746  -3.5746  -3.5705  -3.5705
  0:     -2.8637  -2.8637  -2.8631  -2.8631  -2.7297  -2.7297  -2.7291  -2.7291
  0:     -2.1543  -2.1543  -2.1539  -2.1539  -1.4382  -1.4382  -1.4325  -1.4325
  0:     -1.3601  -1.3601  -1.3488  -1.3488  -0.5178  -0.5178  -0.5117  -0.5117
  0:     -0.2557  -0.2557  -0.2353  -0.2353  -0.0994  -0.0994  -0.0961  -0.0961
  0:      0.4464   0.4464   0.4875   0.4875   0.6580   0.6580   0.6946   0.6946
  0:      0.8297   0.8297   0.8341   0.8341   0.8843   0.8843   0.9375   0.9375
  0:      1.0465   1.0465   1.0564   1.0564   1.2461   1.2461   1.2871   1.2871
  0:      1.4608   1.4608   1.4673   1.4673   1.7051   1.7051   1.7298   1.7298
  0:      5.1016   5.1016   5.1846   5.1846   6.0011   6.0011   6.1177   6.1177
  0:      6.5157   6.5157   6.5543   6.5543   6.9442   6.9442   6.9913   6.9913
  0:      8.0479   8.0479   8.0627   8.0627   8.5176   8.5176   8.5414   8.5414
  0:      8.6096   8.6096   8.6277   8.6277   9.2043   9.2043   9.2158   9.2158
  0:      9.5505   9.5505   9.5556   9.5556   9.7051   9.7051   9.7128   9.7128
  0:      9.9954   9.9954  10.0177  10.0177  10.1282  10.1282  10.1624  10.1624
  0:     10.2741  10.2741  10.3006  10.3006  10.5091  10.5091  10.5151  10.5151
  0:     10.6976  10.6976  10.7188  10.7188  11.2586  11.2586  11.2843  11.2843
  0: 
  0:           k = 0.2025 0.4709 0.4285 ( 52628 PWs)   bands (ev):
  0: 
  0:    -17.1644 -17.1644 -17.1644 -17.1644 -15.0192 -15.0192 -15.0187 -15.0187
  0:    -14.9968 -14.9968 -14.9960 -14.9960 -13.2813 -13.2813 -13.2812 -13.2812
  0:    -12.5423 -12.5423 -12.5314 -12.5314 -12.5037 -12.5037 -12.4928 -12.4928
  0:    -12.4134 -12.4134 -12.4125 -12.4125 -11.8942 -11.8942 -11.8941 -11.8941
  0:    -11.4894 -11.4894 -11.4889 -11.4889 -11.0799 -11.0799 -11.0694 -11.0694
  0:    -11.0142 -11.0142 -11.0033 -11.0033  -9.4057  -9.4057  -9.4056  -9.4056
  0:     -7.8368  -7.8368  -7.8367  -7.8367  -6.5550  -6.5550  -6.5546  -6.5546
  0:     -6.2939  -6.2939  -6.2936  -6.2936  -4.8744  -4.8744  -4.8741  -4.8741
  0:     -4.7646  -4.7646  -4.7634  -4.7634  -3.5745  -3.5745  -3.5704  -3.5704
  0:     -2.8635  -2.8635  -2.8632  -2.8632  -2.7295  -2.7295  -2.7292  -2.7292
  0:     -2.1543  -2.1543  -2.1540  -2.1540  -1.4381  -1.4381  -1.4324  -1.4324
  0:     -1.3602  -1.3602  -1.3489  -1.3489  -0.5179  -0.5179  -0.5122  -0.5122
  0:     -0.2558  -0.2558  -0.2354  -0.2354  -0.0983  -0.0983  -0.0977  -0.0977
  0:      0.4462   0.4462   0.4873   0.4873   0.6584   0.6584   0.6946   0.6946
  0:      0.8319   0.8319   0.8320   0.8320   0.8843   0.8843   0.9377   0.9377
  0:      1.0474   1.0474   1.0555   1.0555   1.2469   1.2469   1.2871   1.2871
  0:      1.4614   1.4614   1.4676   1.4676   1.7049   1.7049   1.7295   1.7295
  0:      5.1015   5.1015   5.1843   5.1843   6.0013   6.0013   6.1173   6.1173
  0:      6.5158   6.5158   6.5533   6.5533   6.9455   6.9455   6.9918   6.9918
  0:      8.0507   8.0507   8.0646   8.0646   8.5199   8.5199   8.5433   8.5433
  0:      8.6094   8.6094   8.6170   8.6170   9.2044   9.2044   9.2157   9.2157
  0:      9.5523   9.5523   9.5556   9.5556   9.7054   9.7054   9.7125   9.7125
  0:      9.9982   9.9982  10.0198  10.0198  10.1277  10.1277  10.1588  10.1588
  0:     10.2758  10.2758  10.3013  10.3013  10.5126  10.5126  10.5132  10.5132
  0:     10.6952  10.6952  10.7166  10.7166  11.2585  11.2585  11.2837  11.2837
  0: 
  0:           k = 0.2025 0.4473 0.4285 ( 52628 PWs)   bands (ev):
  0: 
  0:    -17.1645 -17.1645 -17.1643 -17.1643 -15.0195 -15.0190 -15.0189 -15.0184
  0:    -14.9970 -14.9965 -14.9963 -14.9958 -13.2832 -13.2831 -13.2794 -13.2792
  0:    -12.5442 -12.5405 -12.5334 -12.5294 -12.5067 -12.5005 -12.4958 -12.4898
  0:    -12.4140 -12.4130 -12.4129 -12.4119 -11.8979 -11.8978 -11.8905 -11.8904
  0:    -11.4971 -11.4967 -11.4812 -11.4807 -11.0881 -11.0778 -11.0719 -11.0613
  0:    -11.0214 -11.0107 -11.0072 -10.9961  -9.4067  -9.4067  -9.4049  -9.4048
  0:     -7.8385  -7.8384  -7.8350  -7.8349  -6.5552  -6.5548  -6.5548  -6.5544
  0:     -6.2942  -6.2939  -6.2936  -6.2934  -4.8821  -4.8818  -4.8664  -4.8662
  0:     -4.7695  -4.7684  -4.7600  -4.7588  -3.5756  -3.5728  -3.5715  -3.5687
  0:     -2.8772  -2.8767  -2.8506  -2.8504  -2.7325  -2.7323  -2.7257  -2.7254
  0:     -2.1552  -2.1551  -2.1528  -2.1525  -1.4506  -1.4447  -1.4267  -1.4218
  0:     -1.3616  -1.3581  -1.3513  -1.3462  -0.5507  -0.5433  -0.4854  -0.4826
  0:     -0.2643  -0.2493  -0.2453  -0.2197  -0.1040  -0.1023  -0.0931  -0.0914
  0:      0.4396   0.4516   0.4762   0.4975   0.6393   0.6777   0.6843   0.7031
  0:      0.8231   0.8274   0.8363   0.8401   0.8738   0.8951   0.9286   0.9459
  0:      1.0352   1.0455   1.0602   1.0663   1.2410   1.2531   1.2806   1.2937
  0:      1.4532   1.4579   1.4697   1.4775   1.7019   1.7071   1.7244   1.7335
  0:      5.0825   5.1217   5.1688   5.2009   5.9821   6.0218   6.1128   6.1235
  0:      6.5006   6.5324   6.5427   6.5661   6.9358   6.9540   6.9836   6.9990
  0:      8.0396   8.0562   8.0609   8.0722   8.5123   8.5260   8.5326   8.5524
  0:      8.6061   8.6140   8.6155   8.6227   9.1976   9.2084   9.2100   9.2213
  0:      9.5438   9.5448   9.5581   9.5637   9.6847   9.6938   9.7276   9.7318
  0:      9.9887  10.0057  10.0108  10.0266  10.1007  10.1299  10.1520  10.1864
  0:     10.2532  10.2824  10.2994  10.3203  10.5027  10.5068  10.5204  10.5224
  0:     10.6844  10.7065  10.7121  10.7319  11.2302  11.2568  11.2849  11.3052
  0: 
  0:           k = 0.2025 0.4238 0.4285 ( 52638 PWs)   bands (ev):
  0: 
  0:    -17.1647 -17.1647 -17.1641 -17.1641 -15.0197 -15.0192 -15.0187 -15.0182
  0:    -14.9972 -14.9966 -14.9963 -14.9955 -13.2851 -13.2850 -13.2774 -13.2773
  0:    -12.5460 -12.5386 -12.5355 -12.5274 -12.5097 -12.4987 -12.4972 -12.4867
  0:    -12.4146 -12.4136 -12.4124 -12.4114 -11.9015 -11.9014 -11.8867 -11.8866
  0:    -11.5044 -11.5041 -11.4727 -11.4721 -11.0966 -11.0863 -11.0641 -11.0535
  0:    -11.0288 -11.0183 -11.0004 -10.9892  -9.4079  -9.4078  -9.4042  -9.4041
  0:     -7.8401  -7.8400  -7.8331  -7.8330  -6.5553  -6.5550  -6.5546  -6.5543
  0:     -6.2944  -6.2941  -6.2934  -6.2931  -4.8894  -4.8892  -4.8583  -4.8581
  0:     -4.7748  -4.7737  -4.7559  -4.7547  -3.5759  -3.5718  -3.5704  -3.5664
  0:     -2.8913  -2.8906  -2.8387  -2.8386  -2.7348  -2.7347  -2.7209  -2.7205
  0:     -2.1557  -2.1556  -2.1509  -2.1505  -1.4638  -1.4577  -1.4175  -1.4139
  0:     -1.3619  -1.3551  -1.3529  -1.3436  -0.5831  -0.5750  -0.4562  -0.4542
  0:     -0.2700  -0.2607  -0.2333  -0.2027  -0.1098  -0.1056  -0.0867  -0.0850
  0:      0.4320   0.4562   0.4642   0.5066   0.6210   0.6731   0.6965   0.7091
  0:      0.8134   0.8218   0.8395   0.8472   0.8661   0.9049   0.9190   0.9529
  0:      1.0239   1.0367   1.0731   1.0775   1.2357   1.2596   1.2742   1.3002
  0:      1.4452   1.4482   1.4780   1.4873   1.6983   1.7087   1.7183   1.7366
  0:      5.0649   5.1428   5.1545   5.2185   5.9644   6.0434   6.1099   6.1315
  0:      6.4869   6.5343   6.5501   6.5811   6.9249   6.9614   6.9744   7.0048
  0:      8.0276   8.0471   8.0702   8.0790   8.5038   8.5212   8.5303   8.5592
  0:      8.6054   8.6136   8.6243   8.6308   9.1894   9.1992   9.2144   9.2255
  0:      9.5313   9.5330   9.5614   9.5690   9.6665   9.6768   9.7501   9.7502
  0:      9.9774   9.9999  10.0110  10.0303  10.0740  10.1014  10.1689  10.2058
  0:     10.2391  10.2685  10.3223  10.3374  10.4934  10.5014  10.5280  10.5315
  0:     10.6791  10.7012  10.7352  10.7525  11.2007  11.2264  11.3077  11.3194
  0: 
  0:           k = 0.2025 0.4002 0.4285 ( 52646 PWs)   bands (ev):
  0: 
  0:    -17.1648 -17.1648 -17.1640 -17.1640 -15.0200 -15.0195 -15.0184 -15.0179
  0:    -14.9975 -14.9968 -14.9961 -14.9952 -13.2870 -13.2869 -13.2755 -13.2754
  0:    -12.5477 -12.5376 -12.5368 -12.5255 -12.5125 -12.5015 -12.4939 -12.4837
  0:    -12.4152 -12.4142 -12.4119 -12.4110 -11.9051 -11.9051 -11.8830 -11.8829
  0:    -11.5113 -11.5110 -11.4640 -11.4633 -11.1051 -11.0950 -11.0568 -11.0463
  0:    -11.0360 -11.0259 -10.9938 -10.9826  -9.4091  -9.4090  -9.4036  -9.4035
  0:     -7.8416  -7.8415  -7.8312  -7.8311  -6.5555  -6.5551  -6.5544  -6.5541
  0:     -6.2946  -6.2943  -6.2931  -6.2928  -4.8964  -4.8961  -4.8500  -4.8498
  0:     -4.7804  -4.7793  -4.7522  -4.7510  -3.5755  -3.5715  -3.5674  -3.5635
  0:     -2.9058  -2.9048  -2.8279  -2.8279  -2.7366  -2.7366  -2.7150  -2.7147
  0:     -2.1556  -2.1555  -2.1485  -2.1479  -1.4770  -1.4708  -1.4117  -1.4099
  0:     -1.3615  -1.3531  -1.3501  -1.3407  -0.6147  -0.6063  -0.4346  -0.4256
  0:     -0.2718  -0.2688  -0.2200  -0.1850  -0.1146  -0.1081  -0.0787  -0.0787
  0:      0.4230   0.4515   0.4599   0.5143   0.6041   0.6617   0.7124   0.7139
  0:      0.8030   0.8133   0.8399   0.8528   0.8649   0.9102   0.9131   0.9587
  0:      1.0139   1.0295   1.0858   1.0887   1.2311   1.2661   1.2679   1.3065
  0:      1.4376   1.4387   1.4861   1.4972   1.6942   1.7095   1.7112   1.7389
  0:      5.0489   5.1415   5.1645   5.2367   5.9483   6.0662   6.1086   6.1412
  0:      6.4750   6.5282   6.5687   6.5981   6.9128   6.9647   6.9676   7.0093
  0:      8.0149   8.0371   8.0785   8.0850   8.4952   8.5101   8.5332   8.5639
  0:      8.6068   8.6153   8.6351   8.6408   9.1796   9.1879   9.2177   9.2285
  0:      9.5154   9.5199   9.5622   9.5719   9.6515   9.6625   9.7662   9.7713
  0:      9.9644   9.9873  10.0136  10.0251  10.0546  10.0747  10.1721  10.1994
  0:     10.2514  10.2668  10.3439  10.3524  10.4855  10.4972  10.5359  10.5400
  0:     10.6784  10.7004  10.7636  10.7781  11.1705  11.1942  11.3231  11.3261
  0: 
  0:           k = 0.2025 0.3767 0.4285 ( 52646 PWs)   bands (ev):
  0: 
  0:    -17.1650 -17.1650 -17.1639 -17.1639 -15.0203 -15.0198 -15.0181 -15.0177
  0:    -14.9977 -14.9971 -14.9958 -14.9950 -13.2888 -13.2887 -13.2736 -13.2735
  0:    -12.5494 -12.5397 -12.5350 -12.5236 -12.5152 -12.5042 -12.4906 -12.4806
  0:    -12.4159 -12.4148 -12.4115 -12.4106 -11.9087 -11.9086 -11.8792 -11.8791
  0:    -11.5176 -11.5174 -11.4550 -11.4541 -11.1137 -11.1037 -11.0498 -11.0453
  0:    -11.0376 -11.0336 -10.9875 -10.9762  -9.4105  -9.4104  -9.4032  -9.4032
  0:     -7.8430  -7.8429  -7.8292  -7.8292  -6.5556  -6.5553  -6.5542  -6.5539
  0:     -6.2948  -6.2945  -6.2928  -6.2925  -4.9030  -4.9027  -4.8417  -4.8416
  0:     -4.7862  -4.7852  -4.7489  -4.7477  -3.5744  -3.5704  -3.5639  -3.5601
  0:     -2.9203  -2.9191  -2.8185  -2.8184  -2.7381  -2.7380  -2.7080  -2.7078
  0:     -2.1550  -2.1549  -2.1456  -2.1449  -1.4901  -1.4839  -1.4103  -1.4101
  0:     -1.3616  -1.3524  -1.3423  -1.3364  -0.6451  -0.6369  -0.4195  -0.4015
  0:     -0.2723  -0.2692  -0.2056  -0.1683  -0.1168  -0.1098  -0.0723  -0.0686
  0:      0.4125   0.4380   0.4628   0.5203   0.5892   0.6510   0.7129   0.7289
  0:      0.7921   0.8013   0.8391   0.8556   0.8690   0.9040   0.9197   0.9631
  0:      1.0054   1.0246   1.0980   1.0998   1.2274   1.2617   1.2726   1.3126
  0:      1.4293   1.4307   1.4939   1.5069   1.6894   1.7030   1.7098   1.7405
  0:      5.0345   5.1300   5.1867   5.2553   5.9340   6.0898   6.1086   6.1528
  0:      6.4649   6.5241   6.5878   6.6170   6.8996   6.9547   6.9727   7.0123
  0:      8.0015   8.0260   8.0858   8.0903   8.4872   8.5000   8.5350   8.5671
  0:      8.6096   8.6182   8.6468   8.6518   9.1681   9.1743   9.2200   9.2305
  0:      9.4977   9.5051   9.5608   9.5725   9.6400   9.6513   9.7782   9.7895
  0:      9.9498   9.9732  10.0037  10.0109  10.0509  10.0532  10.1638  10.1866
  0:     10.2720  10.2764  10.3635  10.3658  10.4794  10.4944  10.5445  10.5484
  0:     10.6815  10.7033  10.7958  10.8077  11.1399  11.1611  11.3199  11.3248
  0: 
  0:           k = 0.2025 0.3531 0.4285 ( 52630 PWs)   bands (ev):
  0: 
  0:    -17.1651 -17.1651 -17.1637 -17.1637 -15.0205 -15.0201 -15.0179 -15.0174
  0:    -14.9979 -14.9974 -14.9956 -14.9948 -13.2905 -13.2905 -13.2718 -13.2717
  0:    -12.5511 -12.5418 -12.5333 -12.5220 -12.5176 -12.5067 -12.4872 -12.4777
  0:    -12.4165 -12.4155 -12.4111 -12.4102 -11.9121 -11.9121 -11.8755 -11.8753
  0:    -11.5235 -11.5232 -11.4458 -11.4448 -11.1223 -11.1124 -11.0524 -11.0449
  0:    -11.0398 -11.0315 -10.9814 -10.9701  -9.4119  -9.4118  -9.4030  -9.4029
  0:     -7.8443  -7.8442  -7.8273  -7.8272  -6.5557  -6.5554  -6.5540  -6.5537
  0:     -6.2949  -6.2947  -6.2925  -6.2922  -4.9091  -4.9088  -4.8334  -4.8333
  0:     -4.7923  -4.7913  -4.7460  -4.7448  -3.5726  -3.5687  -3.5599  -3.5562
  0:     -2.9347  -2.9334  -2.8104  -2.8103  -2.7393  -2.7391  -2.7000  -2.6998
  0:     -2.1539  -2.1538  -2.1423  -2.1415  -1.5028  -1.4965  -1.4133  -1.4127
  0:     -1.3628  -1.3526  -1.3323  -1.3295  -0.6740  -0.6662  -0.4110  -0.3841
  0:     -0.2697  -0.2630  -0.1899  -0.1565  -0.1126  -0.1105  -0.0655  -0.0560
  0:      0.4005   0.4238   0.4651   0.5239   0.5766   0.6420   0.7108   0.7400
  0:      0.7813   0.7868   0.8392   0.8541   0.8743   0.9028   0.9247   0.9661
  0:      0.9991   1.0221   1.1093   1.1103   1.2248   1.2557   1.2791   1.3183
  0:      1.4201   1.4245   1.5013   1.5164   1.6841   1.6938   1.7095   1.7414
  0:      5.0219   5.1197   5.2091   5.2741   5.9217   6.1095   6.1144   6.1662
  0:      6.4566   6.5221   6.6069   6.6375   6.8854   6.9450   6.9768   7.0139
  0:      7.9872   8.0139   8.0920   8.0948   8.4801   8.4913   8.5364   8.5694
  0:      8.6131   8.6219   8.6587   8.6629   9.1553   9.1587   9.2213   9.2313
  0:      9.4785   9.4890   9.5576   9.5710   9.6321   9.6431   9.7851   9.8032
  0:      9.9329   9.9556   9.9788   9.9985  10.0428  10.0527  10.1537  10.1788
  0:     10.2890  10.2898  10.3777  10.3809  10.4753  10.4933  10.5549  10.5583
  0:     10.6874  10.7092  10.8294  10.8398  11.1095  11.1284  11.3027  11.3125
  0: 
  0:           k = 0.2025 0.3296 0.4285 ( 52630 PWs)   bands (ev):
  0: 
  0:    -17.1652 -17.1652 -17.1636 -17.1636 -15.0208 -15.0203 -15.0177 -15.0172
  0:    -14.9981 -14.9976 -14.9953 -14.9945 -13.2922 -13.2922 -13.2700 -13.2699
  0:    -12.5526 -12.5438 -12.5318 -12.5213 -12.5189 -12.5091 -12.4839 -12.4747
  0:    -12.4172 -12.4161 -12.4107 -12.4099 -11.9155 -11.9155 -11.8717 -11.8716
  0:    -11.5288 -11.5286 -11.4365 -11.4354 -11.1309 -11.1210 -11.0601 -11.0504
  0:    -11.0360 -11.0254 -10.9755 -10.9644  -9.4134  -9.4133  -9.4029  -9.4029
  0:     -7.8454  -7.8453  -7.8253  -7.8252  -6.5558  -6.5555  -6.5538  -6.5535
  0:     -6.2951  -6.2948  -6.2922  -6.2919  -4.9147  -4.9144  -4.8253  -4.8252
  0:     -4.7985  -4.7976  -4.7435  -4.7423  -3.5701  -3.5663  -3.5556  -3.5521
  0:     -2.9488  -2.9473  -2.8036  -2.8034  -2.7402  -2.7400  -2.6911  -2.6911
  0:     -2.1523  -2.1522  -2.1386  -2.1377  -1.5149  -1.5086  -1.4185  -1.4178
  0:     -1.3654  -1.3546  -1.3210  -1.3203  -0.7011  -0.6940  -0.4078  -0.3742
  0:     -0.2607  -0.2552  -0.1734  -0.1525  -0.1097  -0.0995  -0.0576  -0.0408
  0:      0.3869   0.4088   0.4666   0.5248   0.5665   0.6352   0.7065   0.7447
  0:      0.7717   0.7725   0.8402   0.8491   0.8787   0.9062   0.9283   0.9673
  0:      0.9957   1.0223   1.1195   1.1202   1.2235   1.2497   1.2855   1.3233
  0:      1.4110   1.4194   1.5082   1.5255   1.6783   1.6836   1.7089   1.7417
  0:      5.0112   5.1106   5.2313   5.2927   5.9117   6.1111   6.1399   6.1815
  0:      6.4502   6.5217   6.6255   6.6593   6.8704   6.9360   6.9801   7.0141
  0:      7.9720   8.0003   8.0972   8.0988   8.4745   8.4842   8.5375   8.5711
  0:      8.6169   8.6256   8.6697   8.6733   9.1416   9.1420   9.2215   9.2311
  0:      9.4584   9.4717   9.5529   9.5677   9.6279   9.6381   9.7863   9.8110
  0:      9.9122   9.9299   9.9608   9.9808  10.0416  10.0549  10.1491  10.1780
  0:     10.2992  10.3025  10.3882  10.3957  10.4729  10.4937  10.5685  10.5714
  0:     10.6952  10.7173  10.8611  10.8721  11.0802  11.0975  11.2824  11.2966
  0: 
  0:           k = 0.2025 0.3061 0.4285 ( 52618 PWs)   bands (ev):
  0: 
  0:    -17.1654 -17.1654 -17.1635 -17.1635 -15.0210 -15.0206 -15.0174 -15.0170
  0:    -14.9983 -14.9979 -14.9951 -14.9943 -13.2939 -13.2938 -13.2682 -13.2681
  0:    -12.5541 -12.5458 -12.5305 -12.5229 -12.5180 -12.5111 -12.4806 -12.4719
  0:    -12.4178 -12.4168 -12.4105 -12.4096 -11.9189 -11.9188 -11.8680 -11.8679
  0:    -11.5336 -11.5334 -11.4271 -11.4259 -11.1395 -11.1297 -11.0677 -11.0580
  0:    -11.0304 -11.0198 -10.9699 -10.9589  -9.4149  -9.4148  -9.4030  -9.4030
  0:     -7.8464  -7.8463  -7.8233  -7.8232  -6.5559  -6.5556  -6.5537  -6.5534
  0:     -6.2952  -6.2950  -6.2919  -6.2916  -4.9198  -4.9195  -4.8173  -4.8172
  0:     -4.8048  -4.8040  -4.7415  -4.7403  -3.5670  -3.5634  -3.5511  -3.5477
  0:     -2.9625  -2.9609  -2.7979  -2.7975  -2.7409  -2.7407  -2.6817  -2.6816
  0:     -2.1503  -2.1501  -2.1345  -2.1336  -1.5262  -1.5199  -1.4250  -1.4247
  0:     -1.3693  -1.3585  -1.3100  -1.3094  -0.7263  -0.7200  -0.4080  -0.3703
  0:     -0.2478  -0.2477  -0.1573  -0.1528  -0.1067  -0.0825  -0.0470  -0.0227
  0:      0.3719   0.3929   0.4677   0.5227   0.5591   0.6311   0.7004   0.7399
  0:      0.7570   0.7687   0.8419   0.8430   0.8811   0.9119   0.9306   0.9660
  0:      0.9966   1.0252   1.1285   1.1292   1.2234   1.2438   1.2919   1.3275
  0:      1.4020   1.4154   1.5145   1.5342   1.6718   1.6725   1.7082   1.7417
  0:      5.0022   5.1025   5.2532   5.3107   5.9040   6.1130   6.1661   6.1984
  0:      6.4458   6.5229   6.6431   6.6822   6.8549   6.9283   6.9825   7.0130
  0:      7.9559   7.9853   8.1018   8.1022   8.4704   8.4790   8.5387   8.5725
  0:      8.6205   8.6290   8.6791   8.6821   9.1251   9.1280   9.2206   9.2296
  0:      9.4375   9.4535   9.5470   9.5627   9.6273   9.6360   9.7820   9.8122
  0:      9.8867   9.8981   9.9493   9.9657  10.0447  10.0568  10.1527  10.1840
  0:     10.3046  10.3092  10.3978  10.4084  10.4721  10.4952  10.5868  10.5892
  0:     10.7040  10.7268  10.8864  10.9008  11.0544  11.0710  11.2618  11.2815
  0: 
  0:           k = 0.2025 0.2825 0.4285 ( 52622 PWs)   bands (ev):
  0: 
  0:    -17.1655 -17.1655 -17.1634 -17.1634 -15.0212 -15.0208 -15.0172 -15.0168
  0:    -14.9984 -14.9981 -14.9949 -14.9941 -13.2954 -13.2953 -13.2666 -13.2664
  0:    -12.5554 -12.5477 -12.5294 -12.5248 -12.5165 -12.5127 -12.4774 -12.4692
  0:    -12.4185 -12.4174 -12.4102 -12.4094 -11.9221 -11.9220 -11.8644 -11.8643
  0:    -11.5378 -11.5377 -11.4178 -11.4165 -11.1479 -11.1382 -11.0751 -11.0657
  0:    -11.0251 -11.0148 -10.9644 -10.9538  -9.4164  -9.4163  -9.4032  -9.4032
  0:     -7.8473  -7.8472  -7.8214  -7.8213  -6.5559  -6.5556  -6.5535  -6.5532
  0:     -6.2953  -6.2951  -6.2916  -6.2913  -4.9243  -4.9240  -4.8112  -4.8104
  0:     -4.8095  -4.8094  -4.7398  -4.7387  -3.5634  -3.5600  -3.5464  -3.5432
  0:     -2.9757  -2.9740  -2.7932  -2.7926  -2.7415  -2.7412  -2.6721  -2.6717
  0:     -2.1478  -2.1477  -2.1302  -2.1292  -1.5366  -1.5304  -1.4327  -1.4324
  0:     -1.3746  -1.3641  -1.2991  -1.2978  -0.7495  -0.7440  -0.4098  -0.3698
  0:     -0.2417  -0.2343  -0.1535  -0.1436  -0.1002  -0.0675  -0.0313  -0.0021
  0:      0.3557   0.3763   0.4683   0.5180   0.5541   0.6293   0.6929   0.7286
  0:      0.7435   0.7669   0.8379   0.8441   0.8818   0.9177   0.9315   0.9623
  0:      1.0019   1.0302   1.1360   1.1373   1.2246   1.2379   1.2983   1.3307
  0:      1.3932   1.4126   1.5201   1.5422   1.6608   1.6649   1.7076   1.7414
  0:      4.9951   5.0953   5.2744   5.3281   5.8988   6.1146   6.1930   6.2171
  0:      6.4434   6.5253   6.6588   6.7053   6.8391   6.9228   6.9845   7.0108
  0:      7.9387   7.9687   8.1055   8.1058   8.4676   8.4754   8.5399   8.5735
  0:      8.6238   8.6319   8.6864   8.6887   9.1095   9.1160   9.2186   9.2269
  0:      9.4161   9.4344   9.5400   9.5560   9.6300   9.6366   9.7732   9.8070
  0:      9.8571   9.8643   9.9418   9.9558  10.0503  10.0593  10.1636  10.1951
  0:     10.3044  10.3095  10.4075  10.4194  10.4728  10.4970  10.6096  10.6114
  0:     10.7136  10.7372  10.8999  10.9191  11.0367  11.0521  11.2432  11.2697
  0: 
  0:           k = 0.2025 0.2590 0.4285 ( 52626 PWs)   bands (ev):
  0: 
  0:    -17.1656 -17.1656 -17.1633 -17.1633 -15.0214 -15.0211 -15.0170 -15.0166
  0:    -14.9986 -14.9983 -14.9947 -14.9939 -13.2968 -13.2968 -13.2650 -13.2649
  0:    -12.5567 -12.5495 -12.5288 -12.5266 -12.5152 -12.5139 -12.4742 -12.4666
  0:    -12.4191 -12.4180 -12.4100 -12.4093 -11.9252 -11.9251 -11.8609 -11.8608
  0:    -11.5416 -11.5414 -11.4085 -11.4071 -11.1561 -11.1466 -11.0823 -11.0732
  0:    -11.0202 -11.0104 -10.9592 -10.9490  -9.4179  -9.4178  -9.4035  -9.4035
  0:     -7.8481  -7.8480  -7.8195  -7.8194  -6.5559  -6.5557  -6.5534  -6.5531
  0:     -6.2954  -6.2952  -6.2913  -6.2910  -4.9282  -4.9279  -4.8176  -4.8168
  0:     -4.8020  -4.8020  -4.7385  -4.7374  -3.5595  -3.5562  -3.5417  -3.5387
  0:     -2.9883  -2.9865  -2.7891  -2.7884  -2.7419  -2.7417  -2.6624  -2.6619
  0:     -2.1450  -2.1448  -2.1256  -2.1245  -1.5459  -1.5398  -1.4414  -1.4404
  0:     -1.3813  -1.3713  -1.2884  -1.2867  -0.7706  -0.7660  -0.4121  -0.3708
  0:     -0.2373  -0.2232  -0.1523  -0.1338  -0.0896  -0.0563  -0.0104   0.0204
  0:      0.3386   0.3588   0.4687   0.5114   0.5513   0.6288   0.6846   0.7154
  0:      0.7318   0.7638   0.8345   0.8466   0.8811   0.9223   0.9307   0.9573
  0:      1.0109   1.0370   1.1422   1.1445   1.2267   1.2321   1.3047   1.3330
  0:      1.3846   1.4110   1.5248   1.5495   1.6488   1.6574   1.7074   1.7408
  0:      4.9897   5.0887   5.2949   5.3444   5.8964   6.1156   6.2205   6.2373
  0:      6.4429   6.5287   6.6718   6.7277   6.8239   6.9201   6.9861   7.0075
  0:      7.9204   7.9503   8.1087   8.1096   8.4662   8.4733   8.5410   8.5739
  0:      8.6266   8.6339   8.6908   8.6926   9.0969   9.1067   9.2152   9.2228
  0:      9.3947   9.4149   9.5320   9.5481   9.6353   9.6391   9.7604   9.7948
  0:      9.8265   9.8320   9.9378   9.9509  10.0577  10.0635  10.1787  10.2090
  0:     10.2998  10.3050  10.4175  10.4281  10.4759  10.4991  10.6358  10.6371
  0:     10.7237  10.7481  10.8988  10.9201  11.0315  11.0414  11.2296  11.2639
  0: 
  0:           k = 0.2025 0.2354 0.4285 ( 52592 PWs)   bands (ev):
  0: 
  0:    -17.1657 -17.1657 -17.1632 -17.1632 -15.0216 -15.0213 -15.0168 -15.0165
  0:    -14.9988 -14.9985 -14.9945 -14.9937 -13.2982 -13.2981 -13.2635 -13.2634
  0:    -12.5578 -12.5513 -12.5286 -12.5283 -12.5145 -12.5139 -12.4712 -12.4642
  0:    -12.4197 -12.4187 -12.4099 -12.4091 -11.9281 -11.9281 -11.8575 -11.8574
  0:    -11.5449 -11.5447 -11.3995 -11.3979 -11.1641 -11.1549 -11.0892 -11.0805
  0:    -11.0159 -11.0065 -10.9542 -10.9446  -9.4194  -9.4193  -9.4039  -9.4038
  0:     -7.8488  -7.8487  -7.8177  -7.8176  -6.5560  -6.5557  -6.5532  -6.5530
  0:     -6.2954  -6.2952  -6.2910  -6.2908  -4.9315  -4.9313  -4.8238  -4.8231
  0:     -4.7950  -4.7949  -4.7375  -4.7364  -3.5552  -3.5522  -3.5370  -3.5342
  0:     -3.0001  -2.9982  -2.7856  -2.7848  -2.7423  -2.7420  -2.6529  -2.6523
  0:     -2.1419  -2.1417  -2.1208  -2.1197  -1.5540  -1.5480  -1.4503  -1.4487
  0:     -1.3892  -1.3798  -1.2780  -1.2760  -0.7896  -0.7858  -0.4142  -0.3723
  0:     -0.2343  -0.2161  -0.1482  -0.1269  -0.0762  -0.0471   0.0129   0.0438
  0:      0.3211   0.3407   0.4692   0.5040   0.5502   0.6279   0.6770   0.7020
  0:      0.7221   0.7589   0.8329   0.8492   0.8799   0.9255   0.9285   0.9516
  0:      1.0222   1.0447   1.1469   1.1510   1.2264   1.2292   1.3112   1.3344
  0:      1.3760   1.4102   1.5288   1.5556   1.6370   1.6497   1.7077   1.7401
  0:      4.9860   5.0825   5.3142   5.3595   5.8966   6.1154   6.2484   6.2588
  0:      6.4444   6.5326   6.6814   6.7466   6.8115   6.9207   6.9877   7.0033
  0:      7.9010   7.9302   8.1121   8.1135   8.4658   8.4724   8.5417   8.5735
  0:      8.6289   8.6352   8.6923   8.6937   9.0886   9.1017   9.2104   9.2174
  0:      9.3735   9.3952   9.5233   9.5392   9.6416   9.6423   9.7436   9.7720
  0:      9.7994   9.8078   9.9374   9.9504  10.0662  10.0693  10.1939  10.2222
  0:     10.2941  10.2990  10.4258  10.4317  10.4840  10.5028  10.6631  10.6646
  0:     10.7352  10.7597  10.8870  10.9074  11.0320  11.0334  11.2242  11.2659
  0: 
  0:           k = 0.2025 0.2119 0.4285 ( 52578 PWs)   bands (ev):
  0: 
  0:    -17.1658 -17.1658 -17.1632 -17.1632 -15.0218 -15.0215 -15.0166 -15.0163
  0:    -14.9989 -14.9987 -14.9943 -14.9936 -13.2994 -13.2994 -13.2621 -13.2620
  0:    -12.5588 -12.5529 -12.5298 -12.5290 -12.5145 -12.5127 -12.4683 -12.4619
  0:    -12.4203 -12.4193 -12.4097 -12.4091 -11.9308 -11.9308 -11.8543 -11.8542
  0:    -11.5477 -11.5476 -11.3906 -11.3890 -11.1719 -11.1630 -11.0956 -11.0874
  0:    -11.0120 -11.0033 -10.9495 -10.9406  -9.4207  -9.4207  -9.4043  -9.4043
  0:     -7.8494  -7.8493  -7.8160  -7.8160  -6.5560  -6.5558  -6.5531  -6.5529
  0:     -6.2954  -6.2953  -6.2907  -6.2905  -4.9343  -4.9341  -4.8299  -4.8293
  0:     -4.7884  -4.7883  -4.7367  -4.7357  -3.5508  -3.5480  -3.5325  -3.5299
  0:     -3.0111  -3.0092  -2.7825  -2.7817  -2.7426  -2.7424  -2.6439  -2.6432
  0:     -2.1387  -2.1384  -2.1159  -2.1148  -1.5608  -1.5550  -1.4593  -1.4571
  0:     -1.3982  -1.3896  -1.2682  -1.2661  -0.8065  -0.8035  -0.4156  -0.3738
  0:     -0.2324  -0.2132  -0.1412  -0.1213  -0.0620  -0.0388   0.0362   0.0670
  0:      0.3036   0.3220   0.4700   0.4969   0.5500   0.6246   0.6715   0.6894
  0:      0.7144   0.7529   0.8325   0.8515   0.8787   0.9252   0.9275   0.9455
  0:      1.0348   1.0527   1.1504   1.1569   1.2207   1.2319   1.3175   1.3352
  0:      1.3679   1.4099   1.5320   1.5603   1.6258   1.6418   1.7085   1.7394
  0:      4.9839   5.0764   5.3324   5.3733   5.8996   6.1138   6.2765   6.2813
  0:      6.4478   6.5370   6.6873   6.7551   6.8085   6.9248   6.9898   6.9986
  0:      7.8805   7.9085   8.1158   8.1176   8.4660   8.4723   8.5419   8.5719
  0:      8.6305   8.6356   8.6911   8.6921   9.0857   9.1015   9.2044   9.2105
  0:      9.3531   9.3758   9.5142   9.5296   9.6402   9.6487   9.7247   9.7411
  0:      9.7797   9.7930   9.9406   9.9537  10.0747  10.0761  10.2036  10.2296
  0:     10.2930  10.2974  10.4283  10.4287  10.4978  10.5105  10.6882  10.6917
  0:     10.7498  10.7725  10.8720  10.8906  11.0222  11.0271  11.2285  11.2748
  0: 
  0:           k = 0.2025 0.1883 0.4285 ( 52602 PWs)   bands (ev):
  0: 
  0:    -17.1659 -17.1659 -17.1631 -17.1631 -15.0220 -15.0217 -15.0164 -15.0162
  0:    -14.9990 -14.9988 -14.9941 -14.9935 -13.3005 -13.3005 -13.2609 -13.2608
  0:    -12.5597 -12.5545 -12.5312 -12.5297 -12.5141 -12.5117 -12.4655 -12.4598
  0:    -12.4208 -12.4199 -12.4096 -12.4090 -11.9334 -11.9334 -11.8512 -11.8511
  0:    -11.5502 -11.5500 -11.3821 -11.3804 -11.1793 -11.1709 -11.1015 -11.0939
  0:    -11.0085 -11.0005 -10.9450 -10.9369  -9.4220  -9.4220  -9.4048  -9.4048
  0:     -7.8499  -7.8498  -7.8144  -7.8144  -6.5560  -6.5558  -6.5530  -6.5528
  0:     -6.2955  -6.2953  -6.2905  -6.2903  -4.9366  -4.9364  -4.8357  -4.8352
  0:     -4.7823  -4.7822  -4.7362  -4.7353  -3.5463  -3.5438  -3.5282  -3.5258
  0:     -3.0211  -3.0192  -2.7798  -2.7789  -2.7429  -2.7426  -2.6355  -2.6348
  0:     -2.1353  -2.1350  -2.1110  -2.1099  -1.5663  -1.5606  -1.4681  -1.4655
  0:     -1.4081  -1.4002  -1.2591  -1.2570  -0.8213  -0.8190  -0.4161  -0.3752
  0:     -0.2314  -0.2133  -0.1325  -0.1160  -0.0482  -0.0306   0.0580   0.0887
  0:      0.2865   0.3032   0.4715   0.4909   0.5502   0.6179   0.6691   0.6782
  0:      0.7087   0.7464   0.8331   0.8532   0.8778   0.9216   0.9281   0.9397
  0:      1.0476   1.0606   1.1527   1.1622   1.2154   1.2340   1.3231   1.3354
  0:      1.3605   1.4095   1.5343   1.5630   1.6163   1.6343   1.7099   1.7387
  0:      4.9832   5.0704   5.3492   5.3856   5.9052   6.1104   6.3043   6.3044
  0:      6.4533   6.5414   6.6894   6.7484   6.8188   6.9317   6.9928   6.9939
  0:      7.8594   7.8855   8.1199   8.1219   8.4666   8.4727   8.5410   8.5689
  0:      8.6315   8.6354   8.6879   8.6888   9.0887   9.1066   9.1973   9.2025
  0:      9.3339   9.3573   9.5050   9.5198   9.6271   9.6486   9.7119   9.7135
  0:      9.7677   9.7832   9.9473   9.9606  10.0819  10.0828  10.2039  10.2276
  0:     10.3012  10.3048  10.4189  10.4235  10.5153  10.5235  10.7077  10.7162
  0:     10.7700  10.7880  10.8589  10.8758  11.0062  11.0139  11.2390  11.2858
  0: 
  0:           k = 0.2025 0.1648 0.4285 ( 52612 PWs)   bands (ev):
  0: 
  0:    -17.1660 -17.1660 -17.1630 -17.1630 -15.0221 -15.0219 -15.0163 -15.0161
  0:    -14.9991 -14.9990 -14.9939 -14.9933 -13.3015 -13.3015 -13.2597 -13.2596
  0:    -12.5605 -12.5559 -12.5323 -12.5306 -12.5134 -12.5108 -12.4630 -12.4579
  0:    -12.4213 -12.4204 -12.4096 -12.4090 -11.9357 -11.9357 -11.8484 -11.8483
  0:    -11.5522 -11.5520 -11.3740 -11.3722 -11.1863 -11.1784 -11.1068 -11.0999
  0:    -11.0055 -10.9984 -10.9409 -10.9337  -9.4232  -9.4232  -9.4053  -9.4053
  0:     -7.8503  -7.8502  -7.8130  -7.8130  -6.5560  -6.5558  -6.5529  -6.5527
  0:     -6.2955  -6.2953  -6.2902  -6.2901  -4.9384  -4.9382  -4.8412  -4.8407
  0:     -4.7768  -4.7766  -4.7359  -4.7350  -3.5419  -3.5397  -3.5242  -3.5221
  0:     -3.0301  -3.0284  -2.7774  -2.7765  -2.7431  -2.7429  -2.6279  -2.6272
  0:     -2.1319  -2.1316  -2.1063  -2.1052  -1.5703  -1.5650  -1.4765  -1.4737
  0:     -1.4187  -1.4116  -1.2509  -1.2489  -0.8341  -0.8324  -0.4156  -0.3763
  0:     -0.2309  -0.2150  -0.1232  -0.1104  -0.0353  -0.0227   0.0774   0.1078
  0:      0.2705   0.2846   0.4740   0.4867   0.5499   0.6083   0.6688   0.6690
  0:      0.7049   0.7401   0.8343   0.8541   0.8773   0.9187   0.9259   0.9364
  0:      1.0600   1.0681   1.1541   1.1670   1.2106   1.2353   1.3266   1.3352
  0:      1.3556   1.4086   1.5358   1.5630   1.6094   1.6274   1.7118   1.7379
  0:      4.9839   5.0641   5.3646   5.3964   5.9133   6.1050   6.3277   6.3315
  0:      6.4606   6.5458   6.6883   6.7341   6.8344   6.9396   6.9904   6.9974
  0:      7.8379   7.8616   8.1244   8.1266   8.4674   8.4734   8.5390   8.5642
  0:      8.6319   8.6346   8.6839   8.6847   9.0972   9.1165   9.1894   9.1938
  0:      9.3164   9.3401   9.4960   9.5099   9.5997   9.6300   9.7031   9.7104
  0:      9.7613   9.7766   9.9575   9.9708  10.0863  10.0876  10.1977  10.2199
  0:     10.3168  10.3186  10.4043  10.4106  10.5342  10.5403  10.7206  10.7352
  0:     10.7958  10.8081  10.8507  10.8657  10.9868  10.9948  11.2488  11.2880
  0: 
  0:           k = 0.2025 0.1413 0.4285 ( 52614 PWs)   bands (ev):
  0: 
  0:    -17.1661 -17.1661 -17.1630 -17.1630 -15.0222 -15.0220 -15.0162 -15.0160
  0:    -14.9992 -14.9991 -14.9937 -14.9932 -13.3024 -13.3024 -13.2587 -13.2586
  0:    -12.5611 -12.5572 -12.5333 -12.5315 -12.5127 -12.5100 -12.4606 -12.4563
  0:    -12.4217 -12.4209 -12.4096 -12.4091 -11.9378 -11.9378 -11.8459 -11.8458
  0:    -11.5538 -11.5537 -11.3664 -11.3646 -11.1928 -11.1855 -11.1115 -11.1053
  0:    -11.0028 -10.9966 -10.9372 -10.9309  -9.4243  -9.4243  -9.4058  -9.4058
  0:     -7.8506  -7.8505  -7.8117  -7.8117  -6.5559  -6.5558  -6.5529  -6.5527
  0:     -6.2955  -6.2953  -6.2900  -6.2899  -4.9397  -4.9395  -4.8463  -4.8458
  0:     -4.7718  -4.7716  -4.7358  -4.7350  -3.5377  -3.5358  -3.5206  -3.5187
  0:     -3.0380  -3.0364  -2.7753  -2.7744  -2.7432  -2.7430  -2.6212  -2.6205
  0:     -2.1286  -2.1283  -2.1017  -2.1007  -1.5730  -1.5680  -1.4843  -1.4815
  0:     -1.4295  -1.4232  -1.2435  -1.2417  -0.8450  -0.8438  -0.4140  -0.3775
  0:     -0.2308  -0.2176  -0.1139  -0.1046  -0.0237  -0.0153   0.0937   0.1235
  0:      0.2561   0.2671   0.4776   0.4846   0.5486   0.5970   0.6622   0.6691
  0:      0.7032   0.7340   0.8359   0.8542   0.8767   0.9174   0.9203   0.9362
  0:      1.0714   1.0750   1.1547   1.1711   1.2066   1.2354   1.3258   1.3344
  0:      1.3553   1.4071   1.5366   1.5603   1.6055   1.6215   1.7141   1.7371
  0:      4.9858   5.0577   5.3783   5.4056   5.9236   6.0975   6.3504   6.3574
  0:      6.4698   6.5499   6.6844   6.7176   6.8494   6.9452   6.9906   7.0038
  0:      7.8166   7.8375   8.1292   8.1314   8.4682   8.4742   8.5359   8.5579
  0:      8.6315   8.6333   8.6801   8.6809   9.1108   9.1303   9.1815   9.1846
  0:      9.3011   9.3249   9.4874   9.5003   9.5642   9.5964   9.7071   9.7153
  0:      9.7591   9.7729   9.9711   9.9841  10.0865  10.0883  10.1911  10.2123
  0:     10.3340  10.3350  10.3858  10.3918  10.5529  10.5583  10.7293  10.7479
  0:     10.8228  10.8324  10.8500  10.8617  10.9662  10.9732  11.2529  11.2812
  0: 
  0:           k = 0.2025 0.1177 0.4285 ( 52626 PWs)   bands (ev):
  0: 
  0:    -17.1662 -17.1662 -17.1629 -17.1629 -15.0223 -15.0222 -15.0161 -15.0159
  0:    -14.9993 -14.9992 -14.9936 -14.9932 -13.3032 -13.3032 -13.2578 -13.2578
  0:    -12.5616 -12.5583 -12.5341 -12.5324 -12.5118 -12.5095 -12.4586 -12.4549
  0:    -12.4221 -12.4214 -12.4095 -12.4091 -11.9396 -11.9396 -11.8437 -11.8436
  0:    -11.5552 -11.5551 -11.3595 -11.3578 -11.1986 -11.1922 -11.1154 -11.1101
  0:    -11.0006 -10.9954 -10.9339 -10.9286  -9.4252  -9.4252  -9.4063  -9.4063
  0:     -7.8508  -7.8508  -7.8106  -7.8106  -6.5559  -6.5558  -6.5528  -6.5527
  0:     -6.2955  -6.2954  -6.2898  -6.2897  -4.9406  -4.9405  -4.8508  -4.8504
  0:     -4.7675  -4.7673  -4.7358  -4.7350  -3.5339  -3.5323  -3.5175  -3.5158
  0:     -3.0448  -3.0434  -2.7734  -2.7726  -2.7434  -2.7432  -2.6154  -2.6148
  0:     -2.1256  -2.1253  -2.0975  -2.0966  -1.5743  -1.5697  -1.4912  -1.4886
  0:     -1.4401  -1.4347  -1.2372  -1.2355  -0.8540  -0.8533  -0.4116  -0.3788
  0:     -0.2309  -0.2203  -0.1051  -0.0987  -0.0135  -0.0084   0.1065   0.1348
  0:      0.2439   0.2515   0.4825   0.4849   0.5457   0.5850   0.6580   0.6689
  0:      0.7032   0.7286   0.8376   0.8538   0.8757   0.9134   0.9182   0.9374
  0:      1.0816   1.0818   1.1545   1.1740   1.2039   1.2339   1.3217   1.3330
  0:      1.3591   1.4048   1.5368   1.5556   1.6042   1.6166   1.7167   1.7362
  0:      4.9888   5.0510   5.3904   5.4131   5.9360   6.0878   6.3720   6.3811
  0:      6.4807   6.5535   6.6787   6.7006   6.8623   6.9451   6.9968   7.0118
  0:      7.7963   7.8140   8.1340   8.1362   8.4689   8.4747   8.5319   8.5503
  0:      8.6306   8.6317   8.6774   8.6780   9.1283   9.1460   9.1751   9.1759
  0:      9.2885   9.3125   9.4786   9.4911   9.5266   9.5583   9.7150   9.7221
  0:      9.7600   9.7717   9.9878  10.0000  10.0819  10.0840  10.1881  10.2074
  0:     10.3469  10.3516  10.3660  10.3698  10.5705  10.5755  10.7358  10.7554
  0:     10.8409  10.8536  10.8635  10.8688  10.9471  10.9521  11.2524  11.2731
  0: 
  0:           k = 0.2025 0.0942 0.4285 ( 52632 PWs)   bands (ev):
  0: 
  0:    -17.1662 -17.1662 -17.1629 -17.1629 -15.0224 -15.0223 -15.0160 -15.0158
  0:    -14.9994 -14.9993 -14.9935 -14.9931 -13.3038 -13.3038 -13.2571 -13.2571
  0:    -12.5619 -12.5593 -12.5347 -12.5333 -12.5111 -12.5090 -12.4567 -12.4538
  0:    -12.4224 -12.4218 -12.4095 -12.4092 -11.9411 -11.9411 -11.8418 -11.8418
  0:    -11.5562 -11.5561 -11.3534 -11.3518 -11.2036 -11.1982 -11.1186 -11.1142
  0:    -10.9987 -10.9945 -10.9311 -10.9268  -9.4260  -9.4260  -9.4067  -9.4067
  0:     -7.8510  -7.8510  -7.8097  -7.8097  -6.5559  -6.5558  -6.5528  -6.5526
  0:     -6.2954  -6.2954  -6.2897  -6.2896  -4.9412  -4.9411  -4.8547  -4.8544
  0:     -4.7639  -4.7637  -4.7359  -4.7352  -3.5306  -3.5293  -3.5148  -3.5134
  0:     -3.0504  -3.0492  -2.7718  -2.7711  -2.7434  -2.7433  -2.6107  -2.6101
  0:     -2.1229  -2.1226  -2.0938  -2.0931  -1.5745  -1.5704  -1.4971  -1.4948
  0:     -1.4501  -1.4455  -1.2319  -1.2305  -0.8613  -0.8608  -0.4084  -0.3804
  0:     -0.2311  -0.2230  -0.0970  -0.0929  -0.0051  -0.0025   0.1158   0.1413
  0:      0.2345   0.2389   0.4873   0.4887   0.5412   0.5727   0.6561   0.6681
  0:      0.7043   0.7239   0.8394   0.8529   0.8746   0.9063   0.9210   0.9387
  0:      1.0878   1.0912   1.1534   1.1753   1.2030   1.2308   1.3171   1.3309
  0:      1.3645   1.4017   1.5367   1.5505   1.6041   1.6130   1.7194   1.7353
  0:      4.9928   5.0440   5.4008   5.4189   5.9500   6.0762   6.3918   6.4017
  0:      6.4930   6.5565   6.6717   6.6840   6.8730   6.9402   7.0073   7.0207
  0:      7.7779   7.7921   8.1386   8.1406   8.4694   8.4750   8.5276   8.5422
  0:      8.6292   8.6300   8.6759   8.6763   9.1475   9.1557   9.1692   9.1770
  0:      9.2792   9.3039   9.4656   9.4817   9.4938   9.5204   9.7232   9.7287
  0:      9.7631   9.7723  10.0070  10.0180  10.0738  10.0754  10.1892  10.2052
  0:     10.3361  10.3414  10.3662  10.3700  10.5858  10.5904  10.7410  10.7594
  0:     10.8500  10.8611  10.8859  10.8923  10.9334  10.9346  11.2502  11.2656
  0: 
  0:           k = 0.2025 0.0706 0.4285 ( 52644 PWs)   bands (ev):
  0: 
  0:    -17.1663 -17.1663 -17.1628 -17.1628 -15.0225 -15.0224 -15.0159 -15.0158
  0:    -14.9994 -14.9994 -14.9934 -14.9931 -13.3043 -13.3043 -13.2566 -13.2565
  0:    -12.5621 -12.5602 -12.5351 -12.5340 -12.5103 -12.5088 -12.4552 -12.4530
  0:    -12.4227 -12.4222 -12.4095 -12.4093 -11.9423 -11.9423 -11.8404 -11.8403
  0:    -11.5570 -11.5569 -11.3482 -11.3469 -11.2076 -11.2033 -11.1209 -11.1176
  0:    -10.9971 -10.9939 -10.9287 -10.9255  -9.4266  -9.4266  -9.4071  -9.4070
  0:     -7.8512  -7.8511  -7.8090  -7.8090  -6.5559  -6.5558  -6.5527  -6.5526
  0:     -6.2954  -6.2954  -6.2895  -6.2895  -4.9415  -4.9415  -4.8578  -4.8576
  0:     -4.7610  -4.7608  -4.7360  -4.7354  -3.5278  -3.5269  -3.5127  -3.5116
  0:     -3.0548  -3.0538  -2.7705  -2.7699  -2.7435  -2.7434  -2.6069  -2.6065
  0:     -2.1206  -2.1204  -2.0908  -2.0902  -1.5737  -1.5704  -1.5019  -1.5001
  0:     -1.4587  -1.4551  -1.2276  -1.2266  -0.8669  -0.8666  -0.4046  -0.3825
  0:     -0.2312  -0.2254  -0.0900  -0.0876   0.0015   0.0024   0.1221   0.1430
  0:      0.2279   0.2300   0.4917   0.4960   0.5354   0.5604   0.6560   0.6668
  0:      0.7060   0.7198   0.8411   0.8515   0.8743   0.8993   0.9250   0.9397
  0:      1.0938   1.0994   1.1519   1.1744   1.2037   1.2266   1.3140   1.3280
  0:      1.3703   1.3982   1.5364   1.5458   1.6047   1.6104   1.7221   1.7342
  0:      4.9976   5.0370   5.4095   5.4230   5.9654   6.0629   6.4089   6.4183
  0:      6.5065   6.5583   6.6643   6.6691   6.8821   6.9327   7.0187   7.0292
  0:      7.7624   7.7731   8.1427   8.1444   8.4700   8.4750   8.5237   8.5343
  0:      8.6278   8.6283   8.6752   8.6756   9.1536   9.1553   9.1763   9.1910
  0:      9.2743   9.3005   9.4377   9.4662   9.4783   9.4903   9.7303   9.7343
  0:      9.7672   9.7739  10.0274  10.0363  10.0649  10.0652  10.1927  10.2042
  0:     10.3130  10.3164  10.3767  10.3815  10.5984  10.6023  10.7455  10.7609
  0:     10.8581  10.8658  10.8966  10.9073  10.9317  10.9354  11.2482  11.2593
  0: 
  0:           k = 0.2025 0.0471 0.4285 ( 52656 PWs)   bands (ev):
  0: 
  0:    -17.1663 -17.1663 -17.1628 -17.1628 -15.0225 -15.0224 -15.0158 -15.0158
  0:    -14.9995 -14.9994 -14.9933 -14.9931 -13.3046 -13.3046 -13.2561 -13.2561
  0:    -12.5622 -12.5609 -12.5354 -12.5346 -12.5097 -12.5086 -12.4540 -12.4525
  0:    -12.4228 -12.4225 -12.4095 -12.4093 -11.9431 -11.9431 -11.8393 -11.8393
  0:    -11.5575 -11.5575 -11.3443 -11.3433 -11.2104 -11.2074 -11.1225 -11.1202
  0:    -10.9959 -10.9937 -10.9269 -10.9247  -9.4271  -9.4271  -9.4073  -9.4073
  0:     -7.8513  -7.8512  -7.8084  -7.8084  -6.5559  -6.5558  -6.5527  -6.5526
  0:     -6.2954  -6.2954  -6.2894  -6.2894  -4.9417  -4.9417  -4.8601  -4.8600
  0:     -4.7589  -4.7587  -4.7361  -4.7357  -3.5257  -3.5251  -3.5110  -3.5103
  0:     -3.0579  -3.0572  -2.7695  -2.7691  -2.7435  -2.7434  -2.6042  -2.6039
  0:     -2.1189  -2.1188  -2.0884  -2.0880  -1.5724  -1.5700  -1.5053  -1.5041
  0:     -1.4654  -1.4629  -1.2245  -1.2238  -0.8708  -0.8707  -0.4005  -0.3852
  0:     -0.2311  -0.2274  -0.0846  -0.0834   0.0061   0.0062   0.1263   0.1411
  0:      0.2238   0.2247   0.4976   0.5043   0.5288   0.5485   0.6572   0.6651
  0:      0.7078   0.7165   0.8427   0.8498   0.8753   0.8927   0.9294   0.9398
  0:      1.0995   1.1058   1.1512   1.1708   1.2059   1.2217   1.3131   1.3245
  0:      1.3759   1.3943   1.5362   1.5420   1.6053   1.6086   1.7247   1.7328
  0:      5.0031   5.0298   5.4163   5.4253   5.9817   6.0480   6.4225   6.4300
  0:      6.5206   6.5579   6.6570   6.6571   6.8903   6.9242   7.0289   7.0360
  0:      7.7509   7.7580   8.1460   8.1472   8.4708   8.4745   8.5208   8.5276
  0:      8.6267   8.6269   8.6752   8.6754   9.1498   9.1515   9.1947   9.2045
  0:      9.2759   9.3034   9.4049   9.4360   9.4730   9.4783   9.7359   9.7384
  0:      9.7714   9.7757  10.0460  10.0488  10.0573  10.0615  10.1963  10.2031
  0:     10.2919  10.2936  10.3854  10.3896  10.6079  10.6107  10.7496  10.7606
  0:     10.8635  10.8679  10.8958  10.9038  10.9491  10.9510  11.2470  11.2542
  0: 
  0:           k = 0.2025 0.0235 0.4285 ( 52654 PWs)   bands (ev):
  0: 
  0:    -17.1663 -17.1663 -17.1628 -17.1628 -15.0225 -15.0225 -15.0158 -15.0157
  0:    -14.9995 -14.9995 -14.9932 -14.9931 -13.3048 -13.3048 -13.2559 -13.2559
  0:    -12.5621 -12.5614 -12.5355 -12.5351 -12.5092 -12.5087 -12.4531 -12.4524
  0:    -12.4229 -12.4227 -12.4095 -12.4094 -11.9436 -11.9436 -11.8386 -11.8386
  0:    -11.5578 -11.5578 -11.3417 -11.3412 -11.2118 -11.2103 -11.1232 -11.1220
  0:    -10.9949 -10.9938 -10.9255 -10.9244  -9.4273  -9.4273  -9.4075  -9.4075
  0:     -7.8513  -7.8513  -7.8081  -7.8081  -6.5558  -6.5558  -6.5527  -6.5526
  0:     -6.2954  -6.2954  -6.2894  -6.2894  -4.9418  -4.9418  -4.8615  -4.8614
  0:     -4.7575  -4.7574  -4.7361  -4.7359  -3.5244  -3.5241  -3.5100  -3.5096
  0:     -3.0597  -3.0593  -2.7689  -2.7687  -2.7435  -2.7435  -2.6026  -2.6024
  0:     -2.1179  -2.1178  -2.0870  -2.0868  -1.5711  -1.5698  -1.5073  -1.5067
  0:     -1.4695  -1.4682  -1.2226  -1.2222  -0.8731  -0.8731  -0.3963  -0.3885
  0:     -0.2307  -0.2289  -0.0811  -0.0806   0.0086   0.0087   0.1297   0.1373
  0:      0.2218   0.2221   0.5043   0.5122   0.5230   0.5371   0.6590   0.6632
  0:      0.7097   0.7138   0.8444   0.8479   0.8778   0.8867   0.9335   0.9389
  0:      1.1046   1.1089   1.1531   1.1649   1.2091   1.2171   1.3142   1.3206
  0:      1.3811   1.3902   1.5365   1.5392   1.6060   1.6075   1.7272   1.7312
  0:      5.0092   5.0227   5.4213   5.4258   5.9985   6.0321   6.4320   6.4362
  0:      6.5342   6.5541   6.6499   6.6511   6.8984   6.9153   7.0363   7.0399
  0:      7.7442   7.7477   8.1482   8.1488   8.4717   8.4738   8.5194   8.5227
  0:      8.6259   8.6260   8.6753   8.6754   9.1472   9.1481   9.2081   9.2123
  0:      9.2864   9.3087   9.3810   9.4045   9.4709   9.4734   9.7395   9.7408
  0:      9.7747   9.7768  10.0469  10.0476  10.0654  10.0702  10.1987  10.2014
  0:     10.2769  10.2774  10.3914  10.3938  10.6140  10.6154  10.7533  10.7590
  0:     10.8651  10.8669  10.8967  10.9010  10.9635  10.9642  11.2470  11.2505
  0: 
  0:           k = 0.2025 0.0000 0.4285 ( 52668 PWs)   bands (ev):
  0: 
  0:    -17.1663 -17.1663 -17.1628 -17.1628 -15.0225 -15.0225 -15.0157 -15.0157
  0:    -14.9995 -14.9995 -14.9931 -14.9931 -13.3049 -13.3049 -13.2558 -13.2558
  0:    -12.5618 -12.5618 -12.5354 -12.5354 -12.5089 -12.5089 -12.4526 -12.4526
  0:    -12.4228 -12.4228 -12.4094 -12.4094 -11.9438 -11.9438 -11.8384 -11.8384
  0:    -11.5579 -11.5579 -11.3406 -11.3406 -11.2118 -11.2118 -11.1230 -11.1230
  0:    -10.9942 -10.9942 -10.9247 -10.9247  -9.4274  -9.4274  -9.4075  -9.4075
  0:     -7.8513  -7.8513  -7.8080  -7.8080  -6.5558  -6.5558  -6.5527  -6.5527
  0:     -6.2954  -6.2954  -6.2893  -6.2893  -4.9418  -4.9418  -4.8620  -4.8620
  0:     -4.7571  -4.7571  -4.7360  -4.7360  -3.5239  -3.5239  -3.5095  -3.5095
  0:     -3.0601  -3.0601  -2.7686  -2.7686  -2.7435  -2.7435  -2.6019  -2.6019
  0:     -2.1175  -2.1175  -2.0864  -2.0864  -1.5701  -1.5701  -1.5078  -1.5078
  0:     -1.4704  -1.4704  -1.2218  -1.2218  -0.8739  -0.8739  -0.3922  -0.3922
  0:     -0.2300  -0.2300  -0.0797  -0.0797   0.0095   0.0095   0.1333   0.1333
  0:      0.2213   0.2213   0.5110   0.5110   0.5268   0.5268   0.6611   0.6611
  0:      0.7116   0.7116   0.8461   0.8461   0.8817   0.8817   0.9368   0.9368
  0:      1.1082   1.1082   1.1582   1.1582   1.2129   1.2129   1.3169   1.3169
  0:      1.3858   1.3858   1.5374   1.5374   1.6067   1.6067   1.7293   1.7293
  0:      5.0158   5.0158   5.4244   5.4244   6.0155   6.0155   6.4367   6.4367
  0:      6.5459   6.5459   6.6482   6.6482   6.9067   6.9067   7.0401   7.0401
  0:      7.7431   7.7431   8.1492   8.1492   8.4728   8.4728   8.5200   8.5200
  0:      8.6257   8.6257   8.6754   8.6754   9.1466   9.1466   9.2137   9.2137
  0:      9.3022   9.3022   9.3815   9.3815   9.4711   9.4711   9.7412   9.7412
  0:      9.7765   9.7765  10.0454  10.0454  10.0730  10.0730  10.1999  10.1999
  0:     10.2714  10.2714  10.3944  10.3944  10.6165  10.6165  10.7565  10.7565
  0:     10.8655  10.8655  10.8991  10.8991  10.9690  10.9690  11.2481  11.2481
  0: 
  0:           k = 0.1924 0.0000 0.4071 ( 52669 PWs)   bands (ev):
  0: 
  0:    -17.1663 -17.1663 -17.1628 -17.1628 -15.0225 -15.0225 -15.0158 -15.0157
  0:    -14.9995 -14.9995 -14.9931 -14.9931 -13.3049 -13.3049 -13.2558 -13.2558
  0:    -12.5619 -12.5618 -12.5354 -12.5353 -12.5089 -12.5089 -12.4526 -12.4526
  0:    -12.4229 -12.4228 -12.4094 -12.4094 -11.9437 -11.9436 -11.8385 -11.8385
  0:    -11.5581 -11.5580 -11.3407 -11.3406 -11.2119 -11.2118 -11.1230 -11.1230
  0:    -10.9942 -10.9942 -10.9247 -10.9246  -9.4274  -9.4274  -9.4075  -9.4075
  0:     -7.8513  -7.8513  -7.8080  -7.8080  -6.5559  -6.5559  -6.5526  -6.5525
  0:     -6.2957  -6.2955  -6.2893  -6.2891  -4.9418  -4.9418  -4.8622  -4.8621
  0:     -4.7569  -4.7568  -4.7361  -4.7360  -3.5247  -3.5235  -3.5098  -3.5086
  0:     -3.0603  -3.0600  -2.7692  -2.7678  -2.7441  -2.7427  -2.6022  -2.6018
  0:     -2.1185  -2.1176  -2.0863  -2.0858  -1.5708  -1.5695  -1.5092  -1.5069
  0:     -1.4710  -1.4703  -1.2218  -1.2218  -0.8744  -0.8733  -0.3930  -0.3915
  0:     -0.2383  -0.2216  -0.0851  -0.0738   0.0020   0.0177   0.1306   0.1369
  0:      0.2166   0.2274   0.5091   0.5125   0.5256   0.5282   0.6546   0.6677
  0:      0.7092   0.7139   0.8401   0.8528   0.8813   0.8820   0.9359   0.9378
  0:      1.1067   1.1095   1.1521   1.1639   1.2111   1.2137   1.3166   1.3170
  0:      1.3834   1.3881   1.5359   1.5387   1.6042   1.6078   1.7264   1.7318
  0:      5.0146   5.0168   5.4208   5.4284   6.0130   6.0174   6.4347   6.4388
  0:      6.5442   6.5479   6.6417   6.6549   6.9040   6.9093   7.0327   7.0468
  0:      7.7330   7.7461   8.1470   8.1528   8.4693   8.4756   8.5179   8.5252
  0:      8.6270   8.6302   8.6750   8.6771   9.1346   9.1360   9.2101   9.2217
  0:      9.3015   9.3028   9.3857   9.3898   9.4695   9.4799   9.7376   9.7420
  0:      9.7775   9.7845  10.0407  10.0437  10.0721  10.0769  10.1946  10.2088
  0:     10.2662  10.2724  10.3917  10.3948  10.6017  10.6155  10.7564  10.7633
  0:     10.8558  10.8607  10.8992  10.9022  10.9724  10.9842  11.2465  11.2481
  0: 
  0:           k = 0.1823 0.0000 0.3857 ( 52642 PWs)   bands (ev):
  0: 
  0:    -17.1664 -17.1664 -17.1627 -17.1627 -15.0225 -15.0225 -15.0158 -15.0157
  0:    -14.9995 -14.9995 -14.9931 -14.9931 -13.3048 -13.3048 -13.2559 -13.2559
  0:    -12.5619 -12.5618 -12.5354 -12.5353 -12.5089 -12.5089 -12.4526 -12.4526
  0:    -12.4229 -12.4228 -12.4095 -12.4094 -11.9431 -11.9430 -11.8388 -11.8388
  0:    -11.5585 -11.5584 -11.3408 -11.3407 -11.2119 -11.2117 -11.1231 -11.1230
  0:    -10.9941 -10.9940 -10.9247 -10.9246  -9.4274  -9.4274  -9.4076  -9.4076
  0:     -7.8513  -7.8513  -7.8079  -7.8079  -6.5562  -6.5560  -6.5523  -6.5521
  0:     -6.2963  -6.2961  -6.2890  -6.2886  -4.9418  -4.9418  -4.8628  -4.8625
  0:     -4.7564  -4.7562  -4.7361  -4.7360  -3.5259  -3.5238  -3.5095  -3.5074
  0:     -3.0606  -3.0600  -2.7695  -2.7667  -2.7444  -2.7417  -2.6025  -2.6016
  0:     -2.1206  -2.1189  -2.0856  -2.0846  -1.5715  -1.5690  -1.5110  -1.5065
  0:     -1.4721  -1.4705  -1.2218  -1.2216  -0.8747  -0.8725  -0.3938  -0.3909
  0:     -0.2460  -0.2131  -0.0897  -0.0676  -0.0048   0.0266   0.1292   0.1415
  0:      0.2134   0.2349   0.5070   0.5129   0.5250   0.5293   0.6484   0.6742
  0:      0.7069   0.7159   0.8350   0.8598   0.8807   0.8822   0.9352   0.9390
  0:      1.1050   1.1107   1.1458   1.1693   1.2083   1.2136   1.3160   1.3167
  0:      1.3810   1.3903   1.5341   1.5398   1.6006   1.6075   1.7233   1.7338
  0:      5.0131   5.0175   5.4174   5.4325   6.0101   6.0187   6.4327   6.4410
  0:      6.5429   6.5502   6.6357   6.6619   6.9013   6.9118   7.0248   7.0528
  0:      7.7164   7.7417   8.1465   8.1571   8.4658   8.4769   8.5199   8.5330
  0:      8.6340   8.6402   8.6760   8.6801   9.1076   9.1106   9.2076   9.2270
  0:      9.2997   9.3007   9.4029   9.4093   9.4753   9.4951   9.7325   9.7424
  0:      9.7871   9.7982  10.0290  10.0371  10.0762  10.0818  10.1926  10.2197
  0:     10.2566  10.2706  10.3866  10.3929  10.5769  10.5979  10.7595  10.7743
  0:     10.8416  10.8484  10.8999  10.9081  10.9917  11.0070  11.2436  11.2469
  0: 
  0:           k = 0.1722 0.0000 0.3643 ( 52638 PWs)   bands (ev):
  0: 
  0:    -17.1664 -17.1664 -17.1627 -17.1627 -15.0225 -15.0225 -15.0158 -15.0157
  0:    -14.9995 -14.9995 -14.9931 -14.9931 -13.3046 -13.3046 -13.2561 -13.2561
  0:    -12.5619 -12.5618 -12.5354 -12.5353 -12.5089 -12.5089 -12.4526 -12.4526
  0:    -12.4229 -12.4228 -12.4095 -12.4094 -11.9423 -11.9421 -11.8393 -11.8393
  0:    -11.5591 -11.5590 -11.3410 -11.3409 -11.2119 -11.2116 -11.1231 -11.1231
  0:    -10.9939 -10.9937 -10.9246 -10.9244  -9.4273  -9.4273  -9.4076  -9.4076
  0:     -7.8513  -7.8513  -7.8078  -7.8078  -6.5565  -6.5563  -6.5519  -6.5517
  0:     -6.2972  -6.2969  -6.2886  -6.2880  -4.9418  -4.9417  -4.8637  -4.8632
  0:     -4.7555  -4.7553  -4.7360  -4.7360  -3.5274  -3.5247  -3.5087  -3.5060
  0:     -3.0609  -3.0601  -2.7695  -2.7654  -2.7446  -2.7405  -2.6028  -2.6016
  0:     -2.1233  -2.1211  -2.0845  -2.0832  -1.5723  -1.5685  -1.5133  -1.5066
  0:     -1.4734  -1.4712  -1.2217  -1.2215  -0.8749  -0.8715  -0.3947  -0.3904
  0:     -0.2530  -0.2049  -0.0933  -0.0612  -0.0107   0.0358   0.1289   0.1470
  0:      0.2120   0.2436   0.5047   0.5121   0.5253   0.5302   0.6425   0.6803
  0:      0.7052   0.7173   0.8309   0.8667   0.8800   0.8826   0.9348   0.9404
  0:      1.1032   1.1117   1.1391   1.1742   1.2046   1.2129   1.3151   1.3161
  0:      1.3787   1.3921   1.5320   1.5406   1.5960   1.6056   1.7200   1.7351
  0:      5.0115   5.0179   5.4145   5.4366   6.0068   6.0194   6.4307   6.4430
  0:      6.5419   6.5528   6.6300   6.6691   6.8985   6.9142   7.0166   7.0579
  0:      7.6945   7.7303   8.1477   8.1617   8.4628   8.4766   8.5265   8.5428
  0:      8.6460   8.6544   8.6784   8.6850   9.0745   9.0800   9.2022   9.2266
  0:      9.2937   9.2950   9.4296   9.4372   9.4883   9.5160   9.7281   9.7437
  0:      9.8027   9.8155  10.0127  10.0266  10.0833  10.0878  10.1920  10.2293
  0:     10.2450  10.2691  10.3792  10.3889  10.5468  10.5693  10.7564  10.7868
  0:     10.8294  10.8417  10.9020  10.9167  11.0149  11.0290  11.2406  11.2461
  0: 
  0:           k = 0.1620 0.0000 0.3428 ( 52624 PWs)   bands (ev):
  0: 
  0:    -17.1665 -17.1665 -17.1626 -17.1626 -15.0225 -15.0225 -15.0158 -15.0157
  0:    -14.9995 -14.9995 -14.9931 -14.9931 -13.3044 -13.3043 -13.2563 -13.2563
  0:    -12.5619 -12.5618 -12.5354 -12.5353 -12.5089 -12.5089 -12.4526 -12.4526
  0:    -12.4229 -12.4228 -12.4095 -12.4094 -11.9410 -11.9409 -11.8401 -11.8400
  0:    -11.5600 -11.5599 -11.3412 -11.3411 -11.2118 -11.2114 -11.1231 -11.1231
  0:    -10.9936 -10.9934 -10.9244 -10.9242  -9.4273  -9.4272  -9.4077  -9.4077
  0:     -7.8513  -7.8513  -7.8077  -7.8077  -6.5567  -6.5565  -6.5514  -6.5511
  0:     -6.2982  -6.2979  -6.2880  -6.2873  -4.9418  -4.9417  -4.8649  -4.8642
  0:     -4.7544  -4.7541  -4.7360  -4.7359  -3.5289  -3.5259  -3.5075  -3.5044
  0:     -3.0612  -3.0602  -2.7692  -2.7639  -2.7445  -2.7392  -2.6032  -2.6016
  0:     -2.1265  -2.1239  -2.0833  -2.0818  -1.5731  -1.5680  -1.5159  -1.5072
  0:     -1.4752  -1.4723  -1.2216  -1.2213  -0.8748  -0.8705  -0.3956  -0.3900
  0:     -0.2592  -0.1972  -0.0958  -0.0548  -0.0158   0.0451   0.1298   0.1531
  0:      0.2126   0.2535   0.5024   0.5102   0.5264   0.5305   0.6373   0.6853
  0:      0.7047   0.7179   0.8281   0.8727   0.8791   0.8838   0.9346   0.9420
  0:      1.1013   1.1125   1.1322   1.1781   1.2001   1.2117   1.3139   1.3153
  0:      1.3766   1.3936   1.5296   1.5412   1.5907   1.6022   1.7167   1.7358
  0:      5.0098   5.0179   5.4121   5.4408   6.0032   6.0195   6.4285   6.4448
  0:      6.5415   6.5558   6.6247   6.6764   6.8957   6.9166   7.0084   7.0621
  0:      7.6681   7.7126   8.1503   8.1658   8.4603   8.4754   8.5369   8.5546
  0:      8.6620   8.6703   8.6825   8.6932   9.0400   9.0479   9.1949   9.2222
  0:      9.2831   9.2863   9.4599   9.4677   9.5088   9.5423   9.7252   9.7448
  0:      9.8233   9.8365   9.9940  10.0133  10.0911  10.0943  10.1901  10.2244
  0:     10.2457  10.2710  10.3695  10.3827  10.5141  10.5353  10.7487  10.7924
  0:     10.8249  10.8433  10.9068  10.9265  11.0347  11.0460  11.2387  11.2473
  0: 
  0:           k = 0.1519 0.0000 0.3214 ( 52635 PWs)   bands (ev):
  0: 
  0:    -17.1666 -17.1666 -17.1625 -17.1625 -15.0225 -15.0225 -15.0158 -15.0157
  0:    -14.9995 -14.9995 -14.9931 -14.9931 -13.3041 -13.3040 -13.2566 -13.2565
  0:    -12.5619 -12.5618 -12.5354 -12.5353 -12.5089 -12.5089 -12.4526 -12.4526
  0:    -12.4229 -12.4228 -12.4095 -12.4094 -11.9395 -11.9392 -11.8410 -11.8409
  0:    -11.5611 -11.5610 -11.3415 -11.3414 -11.2118 -11.2113 -11.1232 -11.1231
  0:    -10.9933 -10.9930 -10.9243 -10.9240  -9.4272  -9.4271  -9.4078  -9.4078
  0:     -7.8513  -7.8513  -7.8075  -7.8075  -6.5570  -6.5568  -6.5508  -6.5506
  0:     -6.2993  -6.2991  -6.2875  -6.2867  -4.9417  -4.9416  -4.8662  -4.8654
  0:     -4.7530  -4.7526  -4.7360  -4.7359  -3.5305  -3.5273  -3.5060  -3.5028
  0:     -3.0616  -3.0604  -2.7686  -2.7623  -2.7441  -2.7378  -2.6036  -2.6017
  0:     -2.1299  -2.1269  -2.0822  -2.0807  -1.5740  -1.5676  -1.5190  -1.5082
  0:     -1.4771  -1.4737  -1.2214  -1.2211  -0.8746  -0.8694  -0.3965  -0.3898
  0:     -0.2643  -0.1903  -0.0969  -0.0487  -0.0202   0.0541   0.1318   0.1598
  0:      0.2154   0.2645   0.5000   0.5076   0.5277   0.5305   0.6328   0.6884
  0:      0.7063   0.7178   0.8265   0.8758   0.8783   0.8870   0.9348   0.9440
  0:      1.0992   1.1133   1.1249   1.1805   1.1951   1.2104   1.3123   1.3143
  0:      1.3747   1.3946   1.5268   1.5415   1.5848   1.5971   1.7137   1.7359
  0:      5.0079   5.0177   5.4102   5.4448   5.9994   6.0190   6.4259   6.4463
  0:      6.5417   6.5593   6.6200   6.6837   6.8929   6.9192   7.0003   7.0653
  0:      7.6385   7.6897   8.1537   8.1694   8.4585   8.4741   8.5502   8.5679
  0:      8.6803   8.6828   8.6893   8.7084   9.0061   9.0164   9.1874   9.2161
  0:      9.2700   9.2747   9.4898   9.4950   9.5372   9.5729   9.7241   9.7443
  0:      9.8490   9.8620   9.9744   9.9988  10.0968  10.0974  10.1866  10.2135
  0:     10.2546  10.2774  10.3580  10.3752  10.4810  10.4996  10.7413  10.7886
  0:     10.8288  10.8488  10.9140  10.9358  11.0485  11.0575  11.2389  11.2500
  0: 
  0:           k = 0.1418 0.0000 0.3000 ( 52639 PWs)   bands (ev):
  0: 
  0:    -17.1668 -17.1668 -17.1624 -17.1624 -15.0225 -15.0225 -15.0158 -15.0157
  0:    -14.9995 -14.9995 -14.9931 -14.9931 -13.3037 -13.3037 -13.2569 -13.2568
  0:    -12.5619 -12.5618 -12.5354 -12.5353 -12.5089 -12.5089 -12.4526 -12.4525
  0:    -12.4229 -12.4228 -12.4095 -12.4094 -11.9376 -11.9373 -11.8421 -11.8420
  0:    -11.5624 -11.5623 -11.3419 -11.3417 -11.2117 -11.2112 -11.1233 -11.1232
  0:    -10.9928 -10.9926 -10.9240 -10.9238  -9.4271  -9.4270  -9.4080  -9.4079
  0:     -7.8513  -7.8513  -7.8073  -7.8073  -6.5572  -6.5570  -6.5502  -6.5500
  0:     -6.3005  -6.3003  -6.2869  -6.2862  -4.9417  -4.9415  -4.8677  -4.8668
  0:     -4.7514  -4.7510  -4.7360  -4.7359  -3.5321  -3.5289  -3.5045  -3.5012
  0:     -3.0621  -3.0606  -2.7677  -2.7605  -2.7436  -2.7364  -2.6041  -2.6018
  0:     -2.1332  -2.1300  -2.0815  -2.0799  -1.5749  -1.5673  -1.5223  -1.5097
  0:     -1.4793  -1.4753  -1.2211  -1.2208  -0.8742  -0.8683  -0.3974  -0.3897
  0:     -0.2683  -0.1845  -0.0965  -0.0432  -0.0235   0.0625   0.1349   0.1670
  0:      0.2207   0.2765   0.4972   0.5049   0.5279   0.5309   0.6294   0.6892
  0:      0.7105   0.7170   0.8261   0.8756   0.8781   0.8920   0.9354   0.9464
  0:      1.0969   1.1139   1.1173   1.1799   1.1904   1.2097   1.3103   1.3132
  0:      1.3732   1.3953   1.5236   1.5416   1.5786   1.5906   1.7110   1.7354
  0:      5.0061   5.0171   5.4090   5.4487   5.9956   6.0180   6.4228   6.4474
  0:      6.5428   6.5632   6.6157   6.6910   6.8901   6.9220   6.9925   7.0675
  0:      7.6063   7.6626   8.1575   8.1722   8.4572   8.4732   8.5655   8.5822
  0:      8.6901   8.6969   8.7030   8.7303   8.9739   8.9865   9.1809   9.2099
  0:      9.2555   9.2612   9.5172   9.5184   9.5693   9.6051   9.7256   9.7419
  0:      9.8797   9.8924   9.9548   9.9846  10.0917  10.0970  10.1834  10.2108
  0:     10.2645  10.2861  10.3455  10.3673  10.4499  10.4651  10.7361  10.7831
  0:     10.8334  10.8550  10.9220  10.9427  11.0574  11.0655  11.2402  11.2520
  0: 
  0:           k = 0.1316 0.0000 0.2786 ( 52615 PWs)   bands (ev):
  0: 
  0:    -17.1669 -17.1669 -17.1623 -17.1623 -15.0225 -15.0225 -15.0158 -15.0157
  0:    -14.9995 -14.9995 -14.9931 -14.9931 -13.3033 -13.3033 -13.2572 -13.2572
  0:    -12.5619 -12.5618 -12.5354 -12.5353 -12.5089 -12.5089 -12.4526 -12.4525
  0:    -12.4229 -12.4228 -12.4095 -12.4094 -11.9354 -11.9351 -11.8434 -11.8433
  0:    -11.5639 -11.5637 -11.3423 -11.3421 -11.2116 -11.2110 -11.1233 -11.1232
  0:    -10.9924 -10.9921 -10.9238 -10.9235  -9.4269  -9.4269  -9.4081  -9.4081
  0:     -7.8513  -7.8513  -7.8071  -7.8071  -6.5574  -6.5572  -6.5496  -6.5494
  0:     -6.3017  -6.3015  -6.2864  -6.2857  -4.9417  -4.9415  -4.8692  -4.8683
  0:     -4.7496  -4.7492  -4.7359  -4.7359  -3.5336  -3.5305  -3.5029  -3.4996
  0:     -3.0625  -3.0610  -2.7666  -2.7587  -2.7429  -2.7349  -2.6045  -2.6020
  0:     -2.1364  -2.1329  -2.0812  -2.0796  -1.5758  -1.5670  -1.5258  -1.5116
  0:     -1.4816  -1.4772  -1.2209  -1.2205  -0.8736  -0.8672  -0.3984  -0.3899
  0:     -0.2711  -0.1800  -0.0944  -0.0389  -0.0255   0.0698   0.1391   0.1745
  0:      0.2284   0.2892   0.4940   0.5025   0.5260   0.5324   0.6272   0.6885
  0:      0.7155   0.7164   0.8267   0.8742   0.8778   0.8968   0.9365   0.9492
  0:      1.0945   1.1091   1.1150   1.1754   1.1866   1.2100   1.3079   1.3121
  0:      1.3721   1.3954   1.5200   1.5415   1.5723   1.5830   1.7086   1.7345
  0:      5.0043   5.0163   5.4083   5.4522   5.9919   6.0164   6.4188   6.4478
  0:      6.5450   6.5678   6.6120   6.6979   6.8874   6.9251   6.9853   7.0688
  0:      7.5726   7.6325   8.1613   8.1743   8.4567   8.4732   8.5819   8.5969
  0:      8.6980   8.7069   8.7244   8.7547   8.9444   8.9593   9.1760   9.2044
  0:      9.2404   9.2469   9.5395   9.5411   9.5989   9.6345   9.7312   9.7403
  0:      9.9137   9.9274   9.9375   9.9717  10.0763  10.0893  10.1825  10.2172
  0:     10.2749  10.2948  10.3333  10.3607  10.4229  10.4343  10.7329  10.7785
  0:     10.8366  10.8601  10.9284  10.9462  11.0648  11.0739  11.2397  11.2506
  0: 
  0:           k = 0.1215 0.0000 0.2571 ( 52616 PWs)   bands (ev):
  0: 
  0:    -17.1670 -17.1670 -17.1621 -17.1621 -15.0225 -15.0225 -15.0158 -15.0157
  0:    -14.9995 -14.9995 -14.9931 -14.9931 -13.3029 -13.3028 -13.2576 -13.2575
  0:    -12.5619 -12.5618 -12.5354 -12.5353 -12.5089 -12.5089 -12.4526 -12.4526
  0:    -12.4229 -12.4228 -12.4095 -12.4094 -11.9330 -11.9326 -11.8450 -11.8448
  0:    -11.5654 -11.5653 -11.3427 -11.3425 -11.2115 -11.2108 -11.1234 -11.1233
  0:    -10.9919 -10.9916 -10.9235 -10.9232  -9.4268  -9.4268  -9.4083  -9.4082
  0:     -7.8513  -7.8513  -7.8069  -7.8069  -6.5575  -6.5573  -6.5491  -6.5488
  0:     -6.3030  -6.3028  -6.2860  -6.2852  -4.9417  -4.9415  -4.8708  -4.8698
  0:     -4.7477  -4.7474  -4.7359  -4.7359  -3.5351  -3.5321  -3.5013  -3.4981
  0:     -3.0630  -3.0613  -2.7653  -2.7568  -2.7420  -2.7335  -2.6050  -2.6023
  0:     -2.1392  -2.1355  -2.0816  -2.0798  -1.5766  -1.5667  -1.5295  -1.5139
  0:     -1.4840  -1.4792  -1.2206  -1.2202  -0.8729  -0.8660  -0.3994  -0.3902
  0:     -0.2725  -0.1768  -0.0907  -0.0369  -0.0251   0.0760   0.1444   0.1823
  0:      0.2384   0.3025   0.4904   0.5005   0.5230   0.5341   0.6264   0.6871
  0:      0.7140   0.7225   0.8281   0.8725   0.8773   0.9005   0.9383   0.9527
  0:      1.0917   1.1011   1.1160   1.1682   1.1826   1.2111   1.3052   1.3109
  0:      1.3713   1.3951   1.5159   1.5411   1.5659   1.5746   1.7066   1.7330
  0:      5.0025   5.0152   5.4083   5.4553   5.9884   6.0144   6.4139   6.4476
  0:      6.5482   6.5730   6.6089   6.7044   6.8851   6.9286   6.9788   7.0691
  0:      7.5380   7.6002   8.1646   8.1756   8.4571   8.4741   8.5988   8.6116
  0:      8.7062   8.7175   8.7459   8.7789   8.9185   8.9357   9.1728   9.1993
  0:      9.2258   9.2330   9.5582   9.5596   9.6223   9.6564   9.7408   9.7465
  0:      9.9163   9.9501   9.9630   9.9688  10.0551  10.0781  10.1829  10.2278
  0:     10.2834  10.3003  10.3249  10.3574  10.4027  10.4095  10.7307  10.7744
  0:     10.8386  10.8628  10.9321  10.9466  11.0742  11.0855  11.2351  11.2448
  0: 
  0:           k = 0.1114 0.0000 0.2357 ( 52608 PWs)   bands (ev):
  0: 
  0:    -17.1671 -17.1671 -17.1620 -17.1620 -15.0225 -15.0225 -15.0158 -15.0157
  0:    -14.9995 -14.9995 -14.9931 -14.9931 -13.3024 -13.3023 -13.2581 -13.2580
  0:    -12.5619 -12.5617 -12.5354 -12.5353 -12.5089 -12.5089 -12.4526 -12.4526
  0:    -12.4229 -12.4228 -12.4095 -12.4094 -11.9302 -11.9299 -11.8467 -11.8465
  0:    -11.5671 -11.5669 -11.3432 -11.3429 -11.2113 -11.2107 -11.1235 -11.1234
  0:    -10.9913 -10.9910 -10.9232 -10.9229  -9.4267  -9.4266  -9.4084  -9.4084
  0:     -7.8513  -7.8513  -7.8066  -7.8066  -6.5576  -6.5574  -6.5485  -6.5482
  0:     -6.3042  -6.3040  -6.2856  -6.2848  -4.9417  -4.9415  -4.8724  -4.8713
  0:     -4.7458  -4.7455  -4.7359  -4.7358  -3.5365  -3.5336  -3.4997  -3.4967
  0:     -3.0634  -3.0617  -2.7638  -2.7549  -2.7410  -2.7321  -2.6054  -2.6026
  0:     -2.1417  -2.1378  -2.0826  -2.0806  -1.5775  -1.5665  -1.5332  -1.5165
  0:     -1.4863  -1.4814  -1.2203  -1.2198  -0.8720  -0.8649  -0.4003  -0.3908
  0:     -0.2727  -0.1750  -0.0853  -0.0371  -0.0228   0.0807   0.1509   0.1902
  0:      0.2503   0.3160   0.4865   0.4989   0.5191   0.5359   0.6270   0.6852
  0:      0.7123   0.7289   0.8302   0.8707   0.8766   0.9028   0.9409   0.9568
  0:      1.0878   1.0937   1.1173   1.1598   1.1776   1.2125   1.3022   1.3096
  0:      1.3708   1.3944   1.5114   1.5405   1.5594   1.5662   1.7050   1.7312
  0:      5.0009   5.0139   5.4090   5.4580   5.9852   6.0121   6.4080   6.4465
  0:      6.5524   6.5787   6.6066   6.7102   6.8832   6.9325   6.9732   7.0685
  0:      7.5031   7.5667   8.1673   8.1761   8.4584   8.4759   8.6157   8.6261
  0:      8.7142   8.7288   8.7663   8.8009   8.8973   8.9170   9.1710   9.1934
  0:      9.2129   9.2206   9.5691   9.5739   9.6393   9.6712   9.7536   9.7640
  0:      9.9015   9.9453   9.9911  10.0014  10.0395  10.0738  10.1823  10.2381
  0:     10.2862  10.2966  10.3266  10.3565  10.3911  10.3962  10.7283  10.7698
  0:     10.8395  10.8626  10.9345  10.9457  11.0866  11.1006  11.2255  11.2348
  0: 
  0:           k = 0.1013 0.0000 0.2143 ( 52608 PWs)   bands (ev):
  0: 
  0:    -17.1673 -17.1673 -17.1619 -17.1619 -15.0225 -15.0225 -15.0158 -15.0158
  0:    -14.9995 -14.9995 -14.9931 -14.9931 -13.3019 -13.3018 -13.2585 -13.2584
  0:    -12.5619 -12.5617 -12.5354 -12.5353 -12.5089 -12.5089 -12.4526 -12.4526
  0:    -12.4229 -12.4228 -12.4095 -12.4094 -11.9273 -11.9269 -11.8486 -11.8484
  0:    -11.5687 -11.5686 -11.3436 -11.3434 -11.2112 -11.2105 -11.1235 -11.1234
  0:    -10.9908 -10.9905 -10.9229 -10.9225  -9.4265  -9.4265  -9.4086  -9.4086
  0:     -7.8513  -7.8513  -7.8064  -7.8063  -6.5576  -6.5575  -6.5480  -6.5477
  0:     -6.3054  -6.3052  -6.2853  -6.2845  -4.9417  -4.9415  -4.8738  -4.8728
  0:     -4.7440  -4.7437  -4.7359  -4.7358  -3.5379  -3.5351  -3.4982  -3.4954
  0:     -3.0639  -3.0622  -2.7621  -2.7531  -2.7399  -2.7309  -2.6058  -2.6030
  0:     -2.1436  -2.1395  -2.0843  -2.0820  -1.5782  -1.5663  -1.5370  -1.5193
  0:     -1.4885  -1.4835  -1.2199  -1.2195  -0.8710  -0.8639  -0.4012  -0.3915
  0:     -0.2716  -0.1745  -0.0787  -0.0379  -0.0200   0.0839   0.1585   0.1982
  0:      0.2635   0.3293   0.4826   0.4974   0.5150   0.5375   0.6289   0.6830
  0:      0.7107   0.7351   0.8326   0.8688   0.8758   0.9037   0.9440   0.9613
  0:      1.0811   1.0890   1.1189   1.1506   1.1715   1.2135   1.2992   1.3082
  0:      1.3706   1.3934   1.5067   1.5394   1.5522   1.5589   1.7037   1.7291
  0:      4.9994   5.0124   5.4103   5.4601   5.9825   6.0096   6.4014   6.4442
  0:      6.5576   6.5848   6.6054   6.7151   6.8821   6.9368   6.9686   7.0673
  0:      7.4686   7.5325   8.1691   8.1758   8.4606   8.4785   8.6324   8.6406
  0:      8.7209   8.7396   8.7848   8.8182   8.8831   8.9045   9.1692   9.1848
  0:      9.2021   9.2119   9.5711   9.5811   9.6522   9.6863   9.7713   9.7847
  0:      9.8886   9.9336   9.9927  10.0042  10.0690  10.0943  10.1809  10.2462
  0:     10.2814  10.2894  10.3295  10.3538  10.3894  10.4022  10.7251  10.7638
  0:     10.8394  10.8601  10.9376  10.9456  11.1003  11.1180  11.2118  11.2220
  0: 
  0:           k = 0.0911 0.0000 0.1928 ( 52618 PWs)   bands (ev):
  0: 
  0:    -17.1674 -17.1674 -17.1618 -17.1618 -15.0225 -15.0225 -15.0158 -15.0158
  0:    -14.9995 -14.9995 -14.9931 -14.9931 -13.3014 -13.3013 -13.2589 -13.2589
  0:    -12.5619 -12.5617 -12.5354 -12.5353 -12.5089 -12.5089 -12.4526 -12.4526
  0:    -12.4229 -12.4228 -12.4095 -12.4094 -11.9242 -11.9238 -11.8507 -11.8505
  0:    -11.5704 -11.5702 -11.3441 -11.3439 -11.2110 -11.2104 -11.1236 -11.1235
  0:    -10.9903 -10.9900 -10.9226 -10.9222  -9.4263  -9.4263  -9.4088  -9.4087
  0:     -7.8513  -7.8513  -7.8061  -7.8061  -6.5576  -6.5575  -6.5474  -6.5472
  0:     -6.3065  -6.3064  -6.2850  -6.2842  -4.9418  -4.9416  -4.8752  -4.8741
  0:     -4.7422  -4.7419  -4.7359  -4.7357  -3.5391  -3.5366  -3.4967  -3.4942
  0:     -3.0643  -3.0626  -2.7603  -2.7513  -2.7387  -2.7297  -2.6061  -2.6034
  0:     -2.1449  -2.1406  -2.0867  -2.0840  -1.5789  -1.5662  -1.5407  -1.5223
  0:     -1.4905  -1.4856  -1.2196  -1.2192  -0.8699  -0.8630  -0.4021  -0.3925
  0:     -0.2693  -0.1752  -0.0709  -0.0388  -0.0175   0.0855   0.1673   0.2061
  0:      0.2774   0.3420   0.4791   0.4958   0.5110   0.5391   0.6319   0.6805
  0:      0.7096   0.7411   0.8354   0.8670   0.8748   0.9033   0.9478   0.9661
  0:      1.0728   1.0858   1.1210   1.1410   1.1647   1.2139   1.2962   1.3067
  0:      1.3707   1.3921   1.5019   1.5372   1.5450   1.5534   1.7028   1.7268
  0:      4.9981   5.0108   5.4122   5.4617   5.9803   6.0069   6.3943   6.4405
  0:      6.5636   6.5908   6.6060   6.7187   6.8819   6.9409   6.9656   7.0655
  0:      7.4351   7.4984   8.1698   8.1747   8.4638   8.4816   8.6489   8.6553
  0:      8.7253   8.7485   8.8011   8.8281   8.8787   8.8990   9.1646   9.1745
  0:      9.1931   9.2079   9.5673   9.5791   9.6657   9.7043   9.7901   9.8045
  0:      9.8782   9.9198   9.9714  10.0000  10.1163  10.1321  10.1832  10.2528
  0:     10.2707  10.2849  10.3260  10.3490  10.4026  10.4197  10.7210  10.7561
  0:     10.8384  10.8567  10.9424  10.9477  11.1107  11.1339  11.1971  11.2087
  0: 
  0:           k = 0.0810 0.0000 0.1714 ( 52631 PWs)   bands (ev):
  0: 
  0:    -17.1675 -17.1675 -17.1617 -17.1617 -15.0225 -15.0225 -15.0158 -15.0158
  0:    -14.9995 -14.9995 -14.9931 -14.9931 -13.3009 -13.3008 -13.2594 -13.2593
  0:    -12.5618 -12.5617 -12.5354 -12.5353 -12.5089 -12.5089 -12.4527 -12.4526
  0:    -12.4229 -12.4228 -12.4095 -12.4094 -11.9209 -11.9205 -11.8529 -11.8527
  0:    -11.5720 -11.5719 -11.3445 -11.3443 -11.2109 -11.2103 -11.1237 -11.1236
  0:    -10.9897 -10.9894 -10.9222 -10.9219  -9.4262  -9.4261  -9.4090  -9.4089
  0:     -7.8513  -7.8513  -7.8059  -7.8058  -6.5576  -6.5575  -6.5470  -6.5468
  0:     -6.3076  -6.3075  -6.2847  -6.2840  -4.9419  -4.9417  -4.8763  -4.8753
  0:     -4.7405  -4.7403  -4.7359  -4.7356  -3.5402  -3.5379  -3.4954  -3.4931
  0:     -3.0647  -3.0631  -2.7583  -2.7496  -2.7376  -2.7288  -2.6064  -2.6038
  0:     -2.1456  -2.1411  -2.0896  -2.0867  -1.5795  -1.5661  -1.5441  -1.5255
  0:     -1.4923  -1.4877  -1.2192  -1.2188  -0.8688  -0.8621  -0.4028  -0.3935
  0:     -0.2659  -0.1768  -0.0622  -0.0393  -0.0156   0.0856   0.1768   0.2138
  0:      0.2913   0.3534   0.4761   0.4940   0.5081   0.5406   0.6358   0.6776
  0:      0.7090   0.7464   0.8383   0.8653   0.8736   0.9018   0.9520   0.9710
  0:      1.0644   1.0831   1.1231   1.1311   1.1575   1.2132   1.2934   1.3049
  0:      1.3710   1.3906   1.4974   1.5317   1.5407   1.5490   1.7021   1.7244
  0:      4.9970   5.0090   5.4147   5.4625   5.9788   6.0042   6.3871   6.4352
  0:      6.5702   6.5960   6.6090   6.7210   6.8828   6.9439   6.9650   7.0633
  0:      7.4031   7.4649   8.1694   8.1728   8.4677   8.4850   8.6655   8.6705
  0:      8.7274   8.7538   8.8150   8.8321   8.8828   8.9007   9.1548   9.1642
  0:      9.1875   9.2058   9.5610   9.5717   9.6806   9.7216   9.8082   9.8217
  0:      9.8703   9.9040   9.9529   9.9945  10.1511  10.1680  10.2066  10.2566
  0:     10.2626  10.2825  10.3200  10.3435  10.4247  10.4425  10.7165  10.7474
  0:     10.8371  10.8537  10.9482  10.9522  11.1103  11.1357  11.1905  11.1974
  0: 
  0:           k = 0.0709 0.0000 0.1500 ( 52645 PWs)   bands (ev):
  0: 
  0:    -17.1676 -17.1676 -17.1616 -17.1616 -15.0225 -15.0225 -15.0158 -15.0158
  0:    -14.9995 -14.9995 -14.9931 -14.9931 -13.3004 -13.3003 -13.2598 -13.2597
  0:    -12.5618 -12.5617 -12.5354 -12.5353 -12.5090 -12.5089 -12.4527 -12.4526
  0:    -12.4229 -12.4228 -12.4095 -12.4095 -11.9176 -11.9172 -11.8553 -11.8551
  0:    -11.5736 -11.5734 -11.3450 -11.3448 -11.2107 -11.2101 -11.1237 -11.1237
  0:    -10.9892 -10.9890 -10.9219 -10.9216  -9.4260  -9.4260  -9.4091  -9.4091
  0:     -7.8513  -7.8513  -7.8057  -7.8056  -6.5576  -6.5574  -6.5466  -6.5464
  0:     -6.3085  -6.3085  -6.2845  -6.2839  -4.9421  -4.9419  -4.8774  -4.8764
  0:     -4.7391  -4.7387  -4.7360  -4.7354  -3.5412  -3.5392  -3.4942  -3.4921
  0:     -3.0650  -3.0636  -2.7564  -2.7480  -2.7365  -2.7281  -2.6067  -2.6042
  0:     -2.1456  -2.1409  -2.0932  -2.0899  -1.5798  -1.5663  -1.5471  -1.5287
  0:     -1.4939  -1.4895  -1.2189  -1.2185  -0.8676  -0.8614  -0.4034  -0.3947
  0:     -0.2616  -0.1794  -0.0531  -0.0394  -0.0140   0.0842   0.1869   0.2210
  0:      0.3047   0.3628   0.4739   0.4920   0.5066   0.5419   0.6401   0.6744
  0:      0.7092   0.7509   0.8412   0.8639   0.8722   0.8995   0.9567   0.9756
  0:      1.0565   1.0807   1.1202   1.1256   1.1505   1.2115   1.2910   1.3030
  0:      1.3715   1.3889   1.4932   1.5241   1.5388   1.5453   1.7017   1.7218
  0:      4.9961   5.0073   5.4178   5.4627   5.9778   6.0015   6.3803   6.4283
  0:      6.5771   6.6001   6.6147   6.7216   6.8847   6.9446   6.9679   7.0609
  0:      7.3732   7.4324   8.1680   8.1702   8.4720   8.4883   8.6822   8.6863
  0:      8.7283   8.7553   8.8263   8.8357   8.8902   8.9077   9.1424   9.1519
  0:      9.1844   9.2035   9.5549   9.5635   9.6944   9.7346   9.8244   9.8364
  0:      9.8646   9.8874   9.9412   9.9916  10.1546  10.2066  10.2474  10.2497
  0:     10.2744  10.2842  10.3142  10.3382  10.4510  10.4682  10.7122  10.7387
  0:     10.8359  10.8519  10.9546  10.9585  11.0945  11.1153  11.1712  11.1828
  0: 
  0:           k = 0.0608 0.0000 0.1286 ( 52638 PWs)   bands (ev):
  0: 
  0:    -17.1677 -17.1677 -17.1615 -17.1615 -15.0225 -15.0225 -15.0158 -15.0158
  0:    -14.9995 -14.9995 -14.9931 -14.9931 -13.2999 -13.2998 -13.2602 -13.2602
  0:    -12.5618 -12.5617 -12.5354 -12.5353 -12.5090 -12.5089 -12.4527 -12.4526
  0:    -12.4229 -12.4228 -12.4095 -12.4095 -11.9142 -11.9138 -11.8578 -11.8575
  0:    -11.5750 -11.5748 -11.3454 -11.3452 -11.2105 -11.2100 -11.1238 -11.1237
  0:    -10.9888 -10.9885 -10.9216 -10.9213  -9.4258  -9.4258  -9.4093  -9.4093
  0:     -7.8513  -7.8513  -7.8054  -7.8054  -6.5575  -6.5574  -6.5462  -6.5460
  0:     -6.3094  -6.3094  -6.2844  -6.2838  -4.9422  -4.9420  -4.8783  -4.8774
  0:     -4.7381  -4.7372  -4.7360  -4.7350  -3.5420  -3.5403  -3.4931  -3.4913
  0:     -3.0653  -3.0640  -2.7544  -2.7466  -2.7353  -2.7276  -2.6069  -2.6046
  0:     -2.1448  -2.1400  -2.0972  -2.0936  -1.5800  -1.5667  -1.5496  -1.5320
  0:     -1.4952  -1.4913  -1.2186  -1.2182  -0.8665  -0.8608  -0.4039  -0.3959
  0:     -0.2564  -0.1828  -0.0444  -0.0388  -0.0122   0.0813   0.1971   0.2277
  0:      0.3170   0.3698   0.4726   0.4904   0.5067   0.5429   0.6445   0.6711
  0:      0.7104   0.7544   0.8442   0.8627   0.8706   0.8963   0.9616   0.9801
  0:      1.0496   1.0787   1.1102   1.1250   1.1457   1.2086   1.2891   1.3009
  0:      1.3721   1.3873   1.4898   1.5166   1.5375   1.5423   1.7015   1.7193
  0:      4.9955   5.0055   5.4212   5.4622   5.9775   5.9989   6.3741   6.4200
  0:      6.5842   6.6038   6.6221   6.7205   6.8877   6.9431   6.9739   7.0582
  0:      7.3462   7.4016   8.1658   8.1671   8.4763   8.4911   8.6987   8.7027
  0:      8.7296   8.7549   8.8341   8.8400   8.8988   8.9175   9.1298   9.1384
  0:      9.1808   9.1998   9.5507   9.5572   9.7047   9.7409   9.8367   9.8459
  0:      9.8644   9.8738   9.9375   9.9914  10.1527  10.2174  10.2531  10.2736
  0:     10.2971  10.3036  10.3141  10.3347  10.4801  10.4958  10.7086  10.7308
  0:     10.8357  10.8516  10.9614  10.9651  11.0683  11.0841  11.1413  11.1504
  0: 
  0:           k = 0.0506 0.0000 0.1071 ( 52658 PWs)   bands (ev):
  0: 
  0:    -17.1678 -17.1678 -17.1614 -17.1614 -15.0225 -15.0225 -15.0158 -15.0158
  0:    -14.9995 -14.9995 -14.9931 -14.9931 -13.2995 -13.2994 -13.2606 -13.2605
  0:    -12.5618 -12.5617 -12.5354 -12.5353 -12.5090 -12.5089 -12.4527 -12.4526
  0:    -12.4229 -12.4229 -12.4095 -12.4095 -11.9109 -11.9105 -11.8603 -11.8600
  0:    -11.5762 -11.5761 -11.3457 -11.3455 -11.2104 -11.2100 -11.1238 -11.1238
  0:    -10.9884 -10.9882 -10.9214 -10.9211  -9.4257  -9.4257  -9.4095  -9.4094
  0:     -7.8513  -7.8513  -7.8052  -7.8052  -6.5574  -6.5573  -6.5459  -6.5457
  0:     -6.3102  -6.3102  -6.2842  -6.2837  -4.9424  -4.9422  -4.8790  -4.8782
  0:     -4.7374  -4.7362  -4.7358  -4.7345  -3.5427  -3.5413  -3.4921  -3.4905
  0:     -3.0656  -3.0644  -2.7525  -2.7455  -2.7343  -2.7273  -2.6070  -2.6050
  0:     -2.1433  -2.1384  -2.1017  -2.0977  -1.5800  -1.5675  -1.5512  -1.5351
  0:     -1.4962  -1.4928  -1.2183  -1.2180  -0.8654  -0.8604  -0.4042  -0.3972
  0:     -0.2505  -0.1870  -0.0395  -0.0355  -0.0092   0.0771   0.2071   0.2334
  0:      0.3279   0.3740   0.4723   0.4893   0.5084   0.5436   0.6485   0.6678
  0:      0.7129   0.7565   0.8472   0.8619   0.8690   0.8926   0.9667   0.9841
  0:      1.0442   1.0770   1.1002   1.1201   1.1457   1.2046   1.2877   1.2987
  0:      1.3729   1.3856   1.4871   1.5097   1.5364   1.5397   1.7017   1.7168
  0:      4.9951   5.0038   5.4251   5.4610   5.9778   5.9964   6.3690   6.4108
  0:      6.5910   6.6075   6.6305   6.7176   6.8915   6.9405   6.9819   7.0554
  0:      7.3226   7.3728   8.1630   8.1638   8.4802   8.4930   8.7145   8.7192
  0:      8.7332   8.7546   8.8383   8.8435   8.9083   8.9279   9.1179   9.1252
  0:      9.1750   9.1937   9.5494   9.5544   9.7105   9.7403   9.8381   9.8437
  0:      9.8720   9.8759   9.9407   9.9932  10.1500  10.2080  10.2649  10.2792
  0:     10.2980  10.3214  10.3432  10.3538  10.5114  10.5251  10.7057  10.7241
  0:     10.8372  10.8527  10.9677  10.9710  11.0378  11.0491  11.1094  11.1186
  0: 
  0:           k = 0.0405 0.0000 0.0857 ( 52644 PWs)   bands (ev):
  0: 
  0:    -17.1678 -17.1678 -17.1614 -17.1614 -15.0225 -15.0225 -15.0158 -15.0158
  0:    -14.9995 -14.9995 -14.9931 -14.9931 -13.2991 -13.2990 -13.2609 -13.2609
  0:    -12.5618 -12.5617 -12.5354 -12.5353 -12.5090 -12.5089 -12.4526 -12.4526
  0:    -12.4229 -12.4229 -12.4095 -12.4095 -11.9078 -11.9074 -11.8627 -11.8625
  0:    -11.5773 -11.5772 -11.3460 -11.3459 -11.2103 -11.2099 -11.1239 -11.1238
  0:    -10.9880 -10.9879 -10.9211 -10.9209  -9.4256  -9.4256  -9.4096  -9.4095
  0:     -7.8513  -7.8512  -7.8051  -7.8050  -6.5573  -6.5572  -6.5456  -6.5455
  0:     -6.3109  -6.3108  -6.2841  -6.2837  -4.9425  -4.9424  -4.8795  -4.8789
  0:     -4.7370  -4.7362  -4.7348  -4.7339  -3.5433  -3.5421  -3.4912  -3.4900
  0:     -3.0657  -3.0648  -2.7507  -2.7448  -2.7332  -2.7273  -2.6071  -2.6054
  0:     -2.1411  -2.1361  -2.1064  -2.1022  -1.5797  -1.5688  -1.5520  -1.5382
  0:     -1.4970  -1.4942  -1.2180  -1.2178  -0.8643  -0.8602  -0.4043  -0.3985
  0:     -0.2441  -0.1919  -0.0382  -0.0311  -0.0034   0.0714   0.2165   0.2381
  0:      0.3373   0.3753   0.4729   0.4884   0.5118   0.5436   0.6517   0.6647
  0:      0.7169   0.7570   0.8501   0.8615   0.8674   0.8885   0.9715   0.9874
  0:      1.0409   1.0760   1.0906   1.1120   1.1492   1.1996   1.2870   1.2965
  0:      1.3738   1.3840   1.4854   1.5036   1.5355   1.5377   1.7021   1.7144
  0:      4.9949   5.0021   5.4292   5.4592   5.9787   5.9940   6.3653   6.4012
  0:      6.5974   6.6109   6.6397   6.7129   6.8961   6.9372   6.9910   7.0522
  0:      7.3032   7.3467   8.1600   8.1605   8.4835   8.4940   8.7269   8.7348
  0:      8.7413   8.7560   8.8396   8.8448   8.9177   8.9372   9.1076   9.1152
  0:      9.1662   9.1847   9.5510   9.5552   9.7121   9.7347   9.8320   9.8348
  0:      9.8836   9.8892   9.9483   9.9960  10.1473  10.1957  10.2754  10.2826
  0:     10.2932  10.3184  10.3803  10.3896  10.5438  10.5550  10.7033  10.7185
  0:     10.8409  10.8550  10.9720  10.9752  11.0078  11.0151  11.0780  11.0879
  0: 
  0:           k = 0.0304 0.0000 0.0643 ( 52650 PWs)   bands (ev):
  0: 
  0:    -17.1679 -17.1679 -17.1613 -17.1613 -15.0225 -15.0225 -15.0158 -15.0158
  0:    -14.9995 -14.9995 -14.9931 -14.9931 -13.2988 -13.2987 -13.2612 -13.2612
  0:    -12.5618 -12.5617 -12.5354 -12.5354 -12.5089 -12.5089 -12.4526 -12.4526
  0:    -12.4229 -12.4229 -12.4095 -12.4095 -11.9049 -11.9046 -11.8650 -11.8648
  0:    -11.5782 -11.5781 -11.3462 -11.3461 -11.2101 -11.2099 -11.1239 -11.1239
  0:    -10.9877 -10.9876 -10.9209 -10.9208  -9.4255  -9.4255  -9.4097  -9.4097
  0:     -7.8513  -7.8512  -7.8049  -7.8049  -6.5572  -6.5572  -6.5454  -6.5453
  0:     -6.3114  -6.3114  -6.2840  -6.2837  -4.9426  -4.9425  -4.8799  -4.8794
  0:     -4.7368  -4.7362  -4.7339  -4.7333  -3.5437  -3.5429  -3.4905  -3.4896
  0:     -3.0659  -3.0651  -2.7490  -2.7443  -2.7322  -2.7275  -2.6071  -2.6058
  0:     -2.1382  -2.1332  -2.1113  -2.1069  -1.5791  -1.5705  -1.5519  -1.5410
  0:     -1.4975  -1.4953  -1.2178  -1.2176  -0.8633  -0.8601  -0.4041  -0.3997
  0:     -0.2373  -0.1973  -0.0369  -0.0294   0.0052   0.0644   0.2250   0.2414
  0:      0.3453   0.3743   0.4743   0.4874   0.5167   0.5428   0.6539   0.6620
  0:      0.7222   0.7558   0.8529   0.8612   0.8663   0.8840   0.9761   0.9896
  0:      1.0402   1.0758   1.0813   1.1031   1.1544   1.1938   1.2868   1.2943
  0:      1.3748   1.3825   1.4846   1.4983   1.5347   1.5361   1.7027   1.7121
  0:      4.9950   5.0006   5.4336   5.4567   5.9799   5.9917   6.3634   6.3917
  0:      6.6031   6.6136   6.6495   6.7066   6.9013   6.9333   7.0007   7.0482
  0:      7.2888   7.3238   8.1572   8.1577   8.4862   8.4942   8.7351   8.7477
  0:      8.7525   8.7614   8.8387   8.8439   8.9257   8.9435   9.1003   9.1105
  0:      9.1546   9.1730   9.5549   9.5586   9.7109   9.7267   9.8249   9.8268
  0:      9.8960   9.9007   9.9587   9.9984  10.1455  10.1834  10.2827  10.2848
  0:     10.2909  10.3157  10.4132  10.4208  10.5750  10.5833  10.7016  10.7136
  0:     10.8462  10.8575  10.9662  10.9737  10.9881  10.9910  11.0487  11.0592
  0: 
  0:           k = 0.0203 0.0000 0.0429 ( 52637 PWs)   bands (ev):
  0: 
  0:    -17.1679 -17.1679 -17.1613 -17.1613 -15.0225 -15.0225 -15.0158 -15.0158
  0:    -14.9995 -14.9995 -14.9931 -14.9931 -13.2986 -13.2985 -13.2614 -13.2614
  0:    -12.5618 -12.5617 -12.5354 -12.5354 -12.5089 -12.5089 -12.4526 -12.4526
  0:    -12.4229 -12.4229 -12.4095 -12.4095 -11.9026 -11.9024 -11.8669 -11.8667
  0:    -11.5788 -11.5787 -11.3464 -11.3463 -11.2100 -11.2098 -11.1239 -11.1239
  0:    -10.9875 -10.9874 -10.9208 -10.9206  -9.4254  -9.4254  -9.4098  -9.4097
  0:     -7.8513  -7.8512  -7.8048  -7.8048  -6.5572  -6.5571  -6.5452  -6.5452
  0:     -6.3117  -6.3117  -6.2839  -6.2837  -4.9427  -4.9426  -4.8801  -4.8798
  0:     -4.7366  -4.7363  -4.7332  -4.7329  -3.5440  -3.5434  -3.4900  -3.4893
  0:     -3.0659  -3.0654  -2.7475  -2.7443  -2.7311  -2.7279  -2.6070  -2.6061
  0:     -2.1348  -2.1298  -2.1162  -2.1116  -1.5783  -1.5723  -1.5512  -1.5437
  0:     -1.4977  -1.4963  -1.2177  -1.2175  -0.8624  -0.8603  -0.4038  -0.4008
  0:     -0.2304  -0.2033  -0.0354  -0.0296   0.0155   0.0562   0.2320   0.2431
  0:      0.3521   0.3716   0.4763   0.4858   0.5225   0.5410   0.6554   0.6599
  0:      0.7286   0.7528   0.8553   0.8608   0.8663   0.8795   0.9802   0.9903
  0:      1.0427   1.0723   1.0766   1.0947   1.1605   1.1874   1.2871   1.2922
  0:      1.3759   1.3811   1.4847   1.4939   1.5342   1.5349   1.7037   1.7099
  0:      4.9954   4.9991   5.4379   5.4537   5.9815   5.9895   6.3634   6.3829
  0:      6.6079   6.6152   6.6597   6.6989   6.9069   6.9288   7.0106   7.0431
  0:      7.2801   7.3048   8.1549   8.1553   8.4883   8.4936   8.7421   8.7527
  0:      8.7648   8.7708   8.8369   8.8414   8.9318   8.9457   9.0985   9.1120
  0:      9.1410   9.1593   9.5600   9.5628   9.7085   9.7184   9.8192   9.8209
  0:      9.9056   9.9091   9.9701   9.9990  10.1455  10.1719  10.2831  10.2833
  0:     10.2973  10.3144  10.4393  10.4448  10.6015  10.6067  10.7013  10.7097
  0:     10.8503  10.8581  10.9493  10.9608  10.9818  10.9906  11.0227  11.0339
  0: 
  0:           k = 0.0101 0.0000 0.0214 ( 52646 PWs)   bands (ev):
  0: 
  0:    -17.1680 -17.1680 -17.1613 -17.1613 -15.0225 -15.0225 -15.0158 -15.0158
  0:    -14.9995 -14.9995 -14.9931 -14.9931 -13.2984 -13.2984 -13.2615 -13.2615
  0:    -12.5618 -12.5617 -12.5354 -12.5354 -12.5089 -12.5089 -12.4526 -12.4526
  0:    -12.4229 -12.4229 -12.4095 -12.4095 -11.9010 -11.9009 -11.8681 -11.8680
  0:    -11.5792 -11.5791 -11.3465 -11.3464 -11.2100 -11.2099 -11.1239 -11.1239
  0:    -10.9874 -10.9873 -10.9207 -10.9206  -9.4253  -9.4253  -9.4098  -9.4098
  0:     -7.8512  -7.8512  -7.8048  -7.8048  -6.5571  -6.5571  -6.5451  -6.5451
  0:     -6.3120  -6.3120  -6.2838  -6.2837  -4.9428  -4.9427  -4.8802  -4.8801
  0:     -4.7365  -4.7364  -4.7328  -4.7326  -3.5441  -3.5438  -3.4896  -3.4892
  0:     -3.0659  -3.0657  -2.7462  -2.7446  -2.7302  -2.7285  -2.6069  -2.6064
  0:     -2.1309  -2.1263  -2.1206  -2.1163  -1.5771  -1.5741  -1.5499  -1.5461
  0:     -1.4977  -1.4970  -1.2176  -1.2175  -0.8616  -0.8606  -0.4033  -0.4018
  0:     -0.2233  -0.2097  -0.0338  -0.0307   0.0262   0.0469   0.2375   0.2431
  0:      0.3580   0.3678   0.4788   0.4838   0.5284   0.5380   0.6563   0.6583
  0:      0.7355   0.7481   0.8573   0.8599   0.8680   0.8751   0.9839   0.9893
  0:      1.0480   1.0635   1.0786   1.0875   1.1670   1.1807   1.2878   1.2904
  0:      1.3771   1.3797   1.4857   1.4904   1.5338   1.5342   1.7049   1.7080
  0:      4.9960   4.9979   5.4422   5.4503   5.9833   5.9874   6.3654   6.3754
  0:      6.6117   6.6155   6.6701   6.6900   6.9127   6.9238   7.0202   7.0368
  0:      7.2775   7.2902   8.1536   8.1538   8.4900   8.4927   8.7480   8.7538
  0:      8.7746   8.7779   8.8357   8.8385   8.9363   8.9441   9.1032   9.1190
  0:      9.1269   9.1448   9.5645   9.5660   9.7070   9.7117   9.8160   9.8170
  0:      9.9118   9.9137   9.9812   9.9964  10.1482  10.1618  10.2814  10.2819
  0:     10.3048  10.3131  10.4569  10.4598  10.6194  10.6217  10.7028  10.7071
  0:     10.8507  10.8551  10.9429  10.9523  10.9799  10.9917  11.0038  11.0149
  0: 
  0:           k = 0.0000 0.0000 0.0000 ( 52655 PWs)   bands (ev):
  0: 
  0:    -17.1680 -17.1680 -17.1612 -17.1612 -15.0225 -15.0225 -15.0158 -15.0158
  0:    -14.9995 -14.9995 -14.9931 -14.9931 -13.2984 -13.2984 -13.2616 -13.2616
  0:    -12.5618 -12.5618 -12.5354 -12.5354 -12.5089 -12.5089 -12.4526 -12.4526
  0:    -12.4229 -12.4229 -12.4095 -12.4095 -11.9004 -11.9004 -11.8685 -11.8685
  0:    -11.5793 -11.5793 -11.3465 -11.3465 -11.2099 -11.2099 -11.1239 -11.1239
  0:    -10.9873 -10.9873 -10.9206 -10.9206  -9.4253  -9.4253  -9.4098  -9.4098
  0:     -7.8512  -7.8512  -7.8048  -7.8048  -6.5571  -6.5571  -6.5451  -6.5451
  0:     -6.3120  -6.3120  -6.2838  -6.2838  -4.9428  -4.9428  -4.8802  -4.8802
  0:     -4.7365  -4.7365  -4.7326  -4.7326  -3.5440  -3.5440  -3.4893  -3.4893
  0:     -3.0658  -3.0658  -2.7453  -2.7453  -2.7293  -2.7293  -2.6067  -2.6067
  0:     -2.1268  -2.1268  -2.1205  -2.1205  -1.5757  -1.5757  -1.5482  -1.5482
  0:     -1.4974  -1.4974  -1.2175  -1.2175  -0.8610  -0.8610  -0.4026  -0.4026
  0:     -0.2164  -0.2164  -0.0322  -0.0322   0.0368   0.0368   0.2413   0.2413
  0:      0.3632   0.3632   0.4814   0.4814   0.5337   0.5337   0.6572   0.6572
  0:      0.7422   0.7422   0.8587   0.8587   0.8711   0.8711   0.9870   0.9870
  0:      1.0552   1.0552   1.0822   1.0822   1.1738   1.1738   1.2889   1.2889
  0:      1.3784   1.3784   1.4876   1.4876   1.5339   1.5339   1.7063   1.7063
  0:      4.9969   4.9969   5.4464   5.4464   5.9853   5.9853   6.3694   6.3694
  0:      6.6143   6.6143   6.6803   6.6803   6.9184   6.9184   7.0291   7.0291
  0:      7.2809   7.2809   8.1532   8.1532   8.4915   8.4915   8.7522   8.7522
  0:      8.7794   8.7794   8.8363   8.8363   8.9404   8.9404   9.1132   9.1132
  0:      9.1309   9.1309   9.5667   9.5667   9.7077   9.7077   9.8153   9.8153
  0:      9.9145   9.9145   9.9904   9.9904  10.1537  10.1537  10.2810  10.2810
  0:     10.3102  10.3102  10.4641  10.4641  10.6262  10.6262  10.7051  10.7051
  0:     10.8512  10.8512  10.9470  10.9470  10.9831  10.9831  11.0041  11.0041
  0: 
  0:           k =-0.0175 0.0000 0.0214 ( 52643 PWs)   bands (ev):
  0: 
  0:    -17.1680 -17.1680 -17.1613 -17.1613 -15.0225 -15.0225 -15.0158 -15.0158
  0:    -14.9995 -14.9995 -14.9931 -14.9931 -13.2983 -13.2983 -13.2616 -13.2616
  0:    -12.5618 -12.5617 -12.5354 -12.5354 -12.5090 -12.5089 -12.4527 -12.4526
  0:    -12.4229 -12.4229 -12.4095 -12.4095 -11.9004 -11.9004 -11.8685 -11.8685
  0:    -11.5793 -11.5792 -11.3463 -11.3459 -11.2099 -11.2098 -11.1246 -11.1241
  0:    -10.9876 -10.9871 -10.9209 -10.9206  -9.4263  -9.4262  -9.4090  -9.4089
  0:     -7.8512  -7.8512  -7.8046  -7.8045  -6.5570  -6.5570  -6.5451  -6.5450
  0:     -6.3120  -6.3119  -6.2838  -6.2838  -4.9431  -4.9430  -4.8800  -4.8797
  0:     -4.7362  -4.7360  -4.7328  -4.7326  -3.5447  -3.5442  -3.4893  -3.4888
  0:     -3.0660  -3.0650  -2.7457  -2.7449  -2.7306  -2.7285  -2.6082  -2.6059
  0:     -2.1280  -2.1260  -2.1212  -2.1197  -1.5762  -1.5756  -1.5505  -1.5469
  0:     -1.4978  -1.4961  -1.2185  -1.2179  -0.8615  -0.8599  -0.4054  -0.3998
  0:     -0.2221  -0.2107  -0.0365  -0.0311   0.0291   0.0460   0.2385   0.2433
  0:      0.3583   0.3676   0.4797   0.4833   0.5257   0.5431   0.6536   0.6617
  0:      0.7404   0.7451   0.8529   0.8608   0.8652   0.8819   0.9851   0.9896
  0:      1.0499   1.0599   1.0770   1.0875   1.1675   1.1788   1.2812   1.2960
  0:      1.3732   1.3807   1.4822   1.4926   1.5329   1.5370   1.7040   1.7089
  0:      4.9937   5.0013   5.4427   5.4522   5.9847   5.9858   6.3657   6.3763
  0:      6.6119   6.6175   6.6707   6.6900   6.9086   6.9263   7.0142   7.0425
  0:      7.2733   7.2972   8.1530   8.1539   8.4904   8.4915   8.7475   8.7490
  0:      8.7710   8.7769   8.8414   8.8436   8.9432   8.9489   9.1115   9.1165
  0:      9.1285   9.1336   9.5589   9.5687   9.6963   9.7167   9.8106   9.8213
  0:      9.9130   9.9150   9.9839   9.9967  10.1476  10.1579  10.2751  10.2834
  0:     10.3073  10.3095  10.4609  10.4645  10.6221  10.6246  10.6982  10.7038
  0:     10.8487  10.8513  10.9467  10.9502  10.9803  10.9905  11.0035  11.0100
  0: 
  0:           k =-0.0350 0.0000 0.0429 ( 52622 PWs)   bands (ev):
  0: 
  0:    -17.1679 -17.1679 -17.1613 -17.1613 -15.0225 -15.0225 -15.0158 -15.0158
  0:    -14.9995 -14.9995 -14.9931 -14.9931 -13.2982 -13.2982 -13.2617 -13.2617
  0:    -12.5620 -12.5617 -12.5354 -12.5353 -12.5091 -12.5088 -12.4527 -12.4525
  0:    -12.4229 -12.4229 -12.4095 -12.4095 -11.9005 -11.9004 -11.8685 -11.8684
  0:    -11.5793 -11.5792 -11.3454 -11.3445 -11.2098 -11.2096 -11.1262 -11.1252
  0:    -10.9880 -10.9869 -10.9214 -10.9209  -9.4285  -9.4284  -9.4067  -9.4066
  0:     -7.8512  -7.8512  -7.8039  -7.8039  -6.5566  -6.5566  -6.5451  -6.5450
  0:     -6.3117  -6.3116  -6.2840  -6.2839  -4.9439  -4.9437  -4.8792  -4.8787
  0:     -4.7355  -4.7349  -4.7333  -4.7325  -3.5460  -3.5451  -3.4888  -3.4878
  0:     -3.0656  -3.0636  -2.7461  -2.7446  -2.7325  -2.7283  -2.6104  -2.6059
  0:     -2.1293  -2.1258  -2.1214  -2.1188  -1.5771  -1.5760  -1.5538  -1.5465
  0:     -1.4973  -1.4938  -1.2209  -1.2198  -0.8613  -0.8581  -0.4080  -0.3969
  0:     -0.2275  -0.2052  -0.0437  -0.0329   0.0225   0.0568   0.2355   0.2442
  0:      0.3531   0.3713   0.4779   0.4855   0.5196   0.5530   0.6512   0.6669
  0:      0.7394   0.7494   0.8428   0.8622   0.8649   0.8940   0.9841   0.9926
  0:      1.0440   1.0634   1.0725   1.0928   1.1597   1.1825   1.2729   1.3023
  0:      1.3653   1.3804   1.4779   1.4945   1.5335   1.5440   1.7019   1.7117
  0:      4.9917   5.0070   5.4413   5.4599   5.9838   5.9862   6.3651   6.3859
  0:      6.6104   6.6214   6.6616   6.6994   6.8975   6.9322   6.9988   7.0538
  0:      7.2754   7.3204   8.1534   8.1554   8.4883   8.4906   8.7370   8.7391
  0:      8.7566   8.7663   8.8562   8.8606   8.9548   8.9643   9.1112   9.1211
  0:      9.1283   9.1359   9.5479   9.5649   9.6860   9.7194   9.8066   9.8257
  0:      9.9112   9.9139   9.9783  10.0026  10.1394  10.1602  10.2664  10.2821
  0:     10.3009  10.3061  10.4544  10.4616  10.6129  10.6180  10.6854  10.6959
  0:     10.8445  10.8461  10.9493  10.9541  10.9835  10.9987  11.0095  11.0193
  0: 
  0:           k =-0.0526 0.0000 0.0643 ( 52614 PWs)   bands (ev):
  0: 
  0:    -17.1679 -17.1679 -17.1613 -17.1613 -15.0225 -15.0225 -15.0158 -15.0157
  0:    -14.9995 -14.9995 -14.9931 -14.9931 -13.2980 -13.2980 -13.2620 -13.2619
  0:    -12.5621 -12.5618 -12.5354 -12.5353 -12.5091 -12.5088 -12.4528 -12.4525
  0:    -12.4229 -12.4229 -12.4096 -12.4094 -11.9005 -11.9004 -11.8684 -11.8683
  0:    -11.5793 -11.5791 -11.3438 -11.3424 -11.2096 -11.2092 -11.1285 -11.1270
  0:    -10.9885 -10.9869 -10.9221 -10.9213  -9.4314  -9.4312  -9.4038  -9.4037
  0:     -7.8511  -7.8511  -7.8029  -7.8028  -6.5560  -6.5559  -6.5451  -6.5450
  0:     -6.3112  -6.3111  -6.2842  -6.2840  -4.9450  -4.9449  -4.8779  -4.8772
  0:     -4.7349  -4.7339  -4.7332  -4.7320  -3.5480  -3.5467  -3.4878  -3.4864
  0:     -3.0646  -3.0615  -2.7466  -2.7446  -2.7349  -2.7284  -2.6134  -2.6067
  0:     -2.1307  -2.1263  -2.1210  -2.1180  -1.5786  -1.5767  -1.5579  -1.5465
  0:     -1.4959  -1.4910  -1.2247  -1.2230  -0.8604  -0.8557  -0.4103  -0.3940
  0:     -0.2326  -0.2003  -0.0535  -0.0371   0.0170   0.0691   0.2323   0.2439
  0:      0.3479   0.3739   0.4753   0.4880   0.5162   0.5628   0.6501   0.6729
  0:      0.7388   0.7552   0.8317   0.8638   0.8669   0.9067   0.9840   0.9957
  0:      1.0375   1.0629   1.0719   1.0981   1.1504   1.1851   1.2643   1.3078
  0:      1.3549   1.3785   1.4739   1.4921   1.5363   1.5553   1.7002   1.7148
  0:      4.9906   5.0139   5.4424   5.4691   5.9826   5.9868   6.3678   6.3979
  0:      6.6093   6.6254   6.6540   6.7083   6.8861   6.9360   6.9842   7.0630
  0:      7.2873   7.3490   8.1548   8.1576   8.4856   8.4887   8.7200   8.7270
  0:      8.7430   8.7528   8.8764   8.8833   8.9681   8.9794   9.1120   9.1267
  0:      9.1328   9.1383   9.5378   9.5588   9.6777   9.7158   9.7987   9.8243
  0:      9.9084   9.9126   9.9761  10.0079  10.1290  10.1597  10.2562  10.2776
  0:     10.2915  10.3016  10.4435  10.4546  10.6007  10.6080  10.6714  10.6854
  0:     10.8330  10.8373  10.9539  10.9603  10.9860  11.0117  11.0142  11.0307
  0: 
  0:           k =-0.0701 0.0000 0.0857 ( 52635 PWs)   bands (ev):
  0: 
  0:    -17.1679 -17.1679 -17.1613 -17.1613 -15.0226 -15.0225 -15.0158 -15.0157
  0:    -14.9995 -14.9995 -14.9931 -14.9931 -13.2978 -13.2977 -13.2622 -13.2621
  0:    -12.5623 -12.5618 -12.5354 -12.5353 -12.5092 -12.5087 -12.4528 -12.4525
  0:    -12.4229 -12.4228 -12.4096 -12.4094 -11.9006 -11.9004 -11.8683 -11.8682
  0:    -11.5793 -11.5790 -11.3414 -11.3397 -11.2093 -11.2088 -11.1314 -11.1296
  0:    -10.9893 -10.9873 -10.9228 -10.9219  -9.4345  -9.4343  -9.4006  -9.4004
  0:     -7.8510  -7.8509  -7.8014  -7.8013  -6.5551  -6.5550  -6.5451  -6.5449
  0:     -6.3105  -6.3103  -6.2845  -6.2843  -4.9465  -4.9462  -4.8763  -4.8754
  0:     -4.7351  -4.7346  -4.7309  -4.7302  -3.5504  -3.5488  -3.4865  -3.4848
  0:     -3.0630  -3.0590  -2.7472  -2.7451  -2.7377  -2.7287  -2.6170  -2.6082
  0:     -2.1322  -2.1275  -2.1202  -2.1172  -1.5811  -1.5778  -1.5625  -1.5468
  0:     -1.4939  -1.4877  -1.2296  -1.2275  -0.8589  -0.8526  -0.4123  -0.3913
  0:     -0.2372  -0.1963  -0.0651  -0.0430   0.0126   0.0827   0.2294   0.2423
  0:      0.3426   0.3755   0.4718   0.4910   0.5152   0.5717   0.6506   0.6797
  0:      0.7382   0.7623   0.8204   0.8657   0.8698   0.9193   0.9845   0.9986
  0:      1.0303   1.0588   1.0750   1.1031   1.1396   1.1869   1.2555   1.3115
  0:      1.3433   1.3761   1.4688   1.4866   1.5422   1.5699   1.6988   1.7184
  0:      4.9901   5.0215   5.4458   5.4795   5.9813   5.9877   6.3736   6.4120
  0:      6.6075   6.6285   6.6500   6.7165   6.8754   6.9371   6.9717   7.0706
  0:      7.3079   7.3814   8.1573   8.1609   8.4823   8.4861   8.7005   8.7141
  0:      8.7317   8.7403   8.8973   8.9078   8.9775   8.9880   9.1155   9.1347
  0:      9.1402   9.1450   9.5318   9.5544   9.6706   9.7082   9.7832   9.8128
  0:      9.9043   9.9131   9.9781  10.0110  10.1162  10.1545  10.2467  10.2706
  0:     10.2802  10.2970  10.4275  10.4432  10.5888  10.5970  10.6588  10.6750
  0:     10.8135  10.8236  10.9613  10.9694  10.9858  11.0069  11.0322  11.0398
  0: 
  0:           k =-0.0876 0.0000 0.1071 ( 52608 PWs)   bands (ev):
  0: 
  0:    -17.1678 -17.1678 -17.1613 -17.1613 -15.0226 -15.0225 -15.0158 -15.0157
  0:    -14.9995 -14.9995 -14.9931 -14.9931 -13.2974 -13.2974 -13.2626 -13.2624
  0:    -12.5626 -12.5620 -12.5353 -12.5352 -12.5092 -12.5087 -12.4529 -12.4524
  0:    -12.4229 -12.4228 -12.4096 -12.4094 -11.9006 -11.9005 -11.8681 -11.8680
  0:    -11.5793 -11.5789 -11.3384 -11.3362 -11.2090 -11.2083 -11.1349 -11.1328
  0:    -10.9904 -10.9882 -10.9236 -10.9225  -9.4377  -9.4375  -9.3973  -9.3971
  0:     -7.8509  -7.8508  -7.7997  -7.7996  -6.5540  -6.5539  -6.5450  -6.5448
  0:     -6.3096  -6.3095  -6.2848  -6.2846  -4.9480  -4.9477  -4.8747  -4.8736
  0:     -4.7357  -4.7353  -4.7280  -4.7274  -3.5531  -3.5514  -3.4850  -3.4830
  0:     -3.0609  -3.0560  -2.7484  -2.7461  -2.7403  -2.7288  -2.6212  -2.6103
  0:     -2.1338  -2.1289  -2.1194  -2.1166  -1.5845  -1.5797  -1.5668  -1.5470
  0:     -1.4915  -1.4843  -1.2355  -1.2330  -0.8567  -0.8489  -0.4139  -0.3887
  0:     -0.2413  -0.1940  -0.0775  -0.0499   0.0096   0.0972   0.2267   0.2398
  0:      0.3373   0.3759   0.4676   0.4945   0.5157   0.5792   0.6526   0.6872
  0:      0.7376   0.7702   0.8091   0.8680   0.8734   0.9315   0.9846   1.0012
  0:      1.0224   1.0546   1.0781   1.1073   1.1285   1.1879   1.2468   1.3100
  0:      1.3348   1.3736   1.4620   1.4797   1.5513   1.5863   1.6979   1.7224
  0:      4.9900   5.0296   5.4516   5.4908   5.9798   5.9892   6.3824   6.4275
  0:      6.6035   6.6297   6.6518   6.7239   6.8664   6.9350   6.9633   7.0776
  0:      7.3353   7.4166   8.1613   8.1655   8.4788   8.4831   8.6821   8.7021
  0:      8.7212   8.7298   8.9106   8.9267   8.9859   8.9915   9.1235   9.1428
  0:      9.1528   9.1576   9.5313   9.5534   9.6645   9.6990   9.7604   9.7902
  0:      9.8988   9.9143   9.9823  10.0112  10.1005  10.1417  10.2408  10.2622
  0:     10.2679  10.2928  10.4083  10.4294  10.5788  10.5868  10.6492  10.6654
  0:     10.7889  10.8039  10.9691  10.9759  10.9820  10.9959  11.0465  11.0515
  0: 
  0:           k =-0.1051 0.0000 0.1286 ( 52606 PWs)   bands (ev):
  0: 
  0:    -17.1678 -17.1678 -17.1613 -17.1613 -15.0226 -15.0225 -15.0158 -15.0157
  0:    -14.9995 -14.9995 -14.9931 -14.9931 -13.2970 -13.2970 -13.2630 -13.2628
  0:    -12.5628 -12.5621 -12.5353 -12.5352 -12.5093 -12.5087 -12.4529 -12.4524
  0:    -12.4229 -12.4228 -12.4096 -12.4094 -11.9006 -11.9005 -11.8680 -11.8678
  0:    -11.5792 -11.5787 -11.3347 -11.3322 -11.2086 -11.2077 -11.1387 -11.1364
  0:    -10.9922 -10.9899 -10.9241 -10.9230  -9.4409  -9.4407  -9.3939  -9.3937
  0:     -7.8506  -7.8505  -7.7976  -7.7975  -6.5528  -6.5526  -6.5449  -6.5447
  0:     -6.3086  -6.3084  -6.2852  -6.2849  -4.9495  -4.9492  -4.8733  -4.8720
  0:     -4.7363  -4.7358  -4.7246  -4.7241  -3.5560  -3.5542  -3.4834  -3.4813
  0:     -3.0582  -3.0525  -2.7509  -2.7479  -2.7422  -2.7285  -2.6260  -2.6131
  0:     -2.1354  -2.1305  -2.1187  -2.1161  -1.5887  -1.5831  -1.5697  -1.5471
  0:     -1.4889  -1.4810  -1.2422  -1.2394  -0.8538  -0.8446  -0.4149  -0.3863
  0:     -0.2449  -0.1936  -0.0900  -0.0571   0.0083   0.1121   0.2244   0.2367
  0:      0.3322   0.3753   0.4632   0.4981   0.5169   0.5849   0.6558   0.6955
  0:      0.7369   0.7780   0.7985   0.8703   0.8773   0.9427   0.9829   1.0033
  0:      1.0144   1.0520   1.0787   1.1086   1.1211   1.1885   1.2381   1.2997
  0:      1.3339   1.3709   1.4538   1.4731   1.5629   1.6036   1.6975   1.7268
  0:      4.9901   5.0375   5.4594   5.5026   5.9785   5.9913   6.3936   6.4436
  0:      6.5970   6.6305   6.6587   6.7305   6.8601   6.9301   6.9595   7.0847
  0:      7.3680   7.4538   8.1670   8.1718   8.4751   8.4799   8.6668   8.6925
  0:      8.7101   8.7200   8.9051   8.9255   9.0028   9.0050   9.1360   9.1526
  0:      9.1696   9.1730   9.5357   9.5547   9.6589   9.6907   9.7343   9.7592
  0:      9.8892   9.9126   9.9853  10.0121  10.0813  10.1201  10.2380  10.2504
  0:     10.2580  10.2889  10.3903  10.4166  10.5691  10.5779  10.6429  10.6569
  0:     10.7617  10.7800  10.9523  10.9644  10.9923  10.9973  11.0570  11.0687
  0: 
  0:           k =-0.1227 0.0000 0.1500 ( 52618 PWs)   bands (ev):
  0: 
  0:    -17.1677 -17.1677 -17.1614 -17.1614 -15.0226 -15.0225 -15.0158 -15.0157
  0:    -14.9995 -14.9995 -14.9931 -14.9931 -13.2966 -13.2966 -13.2635 -13.2633
  0:    -12.5631 -12.5623 -12.5352 -12.5351 -12.5093 -12.5087 -12.4530 -12.4524
  0:    -12.4229 -12.4228 -12.4096 -12.4094 -11.9007 -11.9005 -11.8678 -11.8676
  0:    -11.5790 -11.5786 -11.3305 -11.3276 -11.2081 -11.2071 -11.1427 -11.1402
  0:    -10.9946 -10.9924 -10.9245 -10.9232  -9.4441  -9.4438  -9.3906  -9.3905
  0:     -7.8504  -7.8503  -7.7954  -7.7952  -6.5515  -6.5513  -6.5447  -6.5444
  0:     -6.3075  -6.3073  -6.2856  -6.2853  -4.9508  -4.9505  -4.8723  -4.8708
  0:     -4.7369  -4.7362  -4.7207  -4.7203  -3.5591  -3.5571  -3.4818  -3.4796
  0:     -3.0552  -3.0487  -2.7547  -2.7504  -2.7428  -2.7277  -2.6312  -2.6165
  0:     -2.1371  -2.1323  -2.1182  -2.1157  -1.5937  -1.5884  -1.5710  -1.5470
  0:     -1.4865  -1.4780  -1.2494  -1.2463  -0.8502  -0.8396  -0.4155  -0.3841
  0:     -0.2479  -0.1956  -0.1018  -0.0639   0.0087   0.1266   0.2226   0.2335
  0:      0.3276   0.3739   0.4590   0.5015   0.5183   0.5889   0.6596   0.7041
  0:      0.7362   0.7799   0.7939   0.8723   0.8811   0.9520   0.9776   1.0016
  0:      1.0105   1.0516   1.0732   1.1067   1.1220   1.1891   1.2287   1.2859
  0:      1.3366   1.3676   1.4456   1.4681   1.5762   1.6215   1.6977   1.7318
  0:      4.9901   5.0448   5.4689   5.5143   5.9776   5.9941   6.4065   6.4593
  0:      6.5890   6.6323   6.6690   6.7363   6.8571   6.9246   6.9590   7.0919
  0:      7.4045   7.4923   8.1747   8.1800   8.4712   8.4765   8.6556   8.6861
  0:      8.6974   8.7096   8.8835   8.9050   9.0268   9.0320   9.1524   9.1661
  0:      9.1864   9.1895   9.5423   9.5561   9.6485   9.6853   9.7107   9.7264
  0:      9.8732   9.9028   9.9868  10.0179  10.0582  10.0912  10.2265  10.2424
  0:     10.2505  10.2860  10.3781  10.4083  10.5566  10.5703  10.6388  10.6488
  0:     10.7356  10.7546  10.9218  10.9380  11.0052  11.0122  11.0705  11.0851
  0: 
  0:           k =-0.1402 0.0000 0.1714 ( 52601 PWs)   bands (ev):
  0: 
  0:    -17.1676 -17.1676 -17.1614 -17.1614 -15.0226 -15.0225 -15.0158 -15.0157
  0:    -14.9995 -14.9995 -14.9931 -14.9931 -13.2961 -13.2960 -13.2640 -13.2638
  0:    -12.5634 -12.5626 -12.5352 -12.5351 -12.5094 -12.5087 -12.4530 -12.4524
  0:    -12.4229 -12.4228 -12.4096 -12.4094 -11.9007 -11.9006 -11.8677 -11.8675
  0:    -11.5788 -11.5783 -11.3259 -11.3227 -11.2076 -11.2064 -11.1467 -11.1442
  0:    -10.9979 -10.9958 -10.9245 -10.9232  -9.4471  -9.4469  -9.3874  -9.3872
  0:     -7.8500  -7.8499  -7.7930  -7.7928  -6.5502  -6.5499  -6.5443  -6.5440
  0:     -6.3063  -6.3061  -6.2861  -6.2857  -4.9519  -4.9516  -4.8718  -4.8702
  0:     -4.7371  -4.7364  -4.7166  -4.7161  -3.5621  -3.5601  -3.4803  -3.4780
  0:     -3.0517  -3.0446  -2.7592  -2.7538  -2.7427  -2.7264  -2.6368  -2.6204
  0:     -2.1389  -2.1342  -2.1178  -2.1155  -1.5993  -1.5946  -1.5711  -1.5468
  0:     -1.4842  -1.4754  -1.2567  -1.2535  -0.8460  -0.8342  -0.4156  -0.3823
  0:     -0.2504  -0.1999  -0.1125  -0.0698   0.0110   0.1397   0.2216   0.2305
  0:      0.3241   0.3719   0.4553   0.5034   0.5202   0.5913   0.6635   0.7119
  0:      0.7356   0.7718   0.7992   0.8736   0.8850   0.9576   0.9690   0.9943
  0:      1.0131   1.0534   1.0615   1.1072   1.1261   1.1898   1.2177   1.2739
  0:      1.3394   1.3637   1.4386   1.4652   1.5903   1.6394   1.6983   1.7372
  0:      4.9900   5.0511   5.4796   5.5257   5.9771   5.9976   6.4201   6.4731
  0:      6.5814   6.6357   6.6823   6.7414   6.8576   6.9208   6.9601   7.0994
  0:      7.4439   7.5316   8.1843   8.1900   8.4671   8.4728   8.6492   8.6766
  0:      8.6853   8.6993   8.8561   8.8786   9.0523   9.0603   9.1726   9.1844
  0:      9.2013   9.2047   9.5487   9.5562   9.6241   9.6707   9.6910   9.7170
  0:      9.8507   9.8816   9.9912  10.0260  10.0326  10.0579  10.2055  10.2285
  0:     10.2513  10.2851  10.3739  10.4058  10.5402  10.5629  10.6322  10.6392
  0:     10.7166  10.7320  10.8884  10.9054  11.0197  11.0277  11.0869  11.1016
  0: 
  0:           k =-0.1577 0.0000 0.1928 ( 52603 PWs)   bands (ev):
  0: 
  0:    -17.1675 -17.1675 -17.1614 -17.1614 -15.0226 -15.0225 -15.0158 -15.0157
  0:    -14.9995 -14.9995 -14.9931 -14.9931 -13.2955 -13.2955 -13.2645 -13.2643
  0:    -12.5637 -12.5628 -12.5351 -12.5350 -12.5094 -12.5087 -12.4530 -12.4524
  0:    -12.4229 -12.4228 -12.4097 -12.4094 -11.9007 -11.9006 -11.8675 -11.8673
  0:    -11.5786 -11.5781 -11.3209 -11.3175 -11.2071 -11.2058 -11.1507 -11.1481
  0:    -11.0019 -11.0000 -10.9242 -10.9229  -9.4500  -9.4497  -9.3844  -9.3842
  0:     -7.8497  -7.8495  -7.7904  -7.7903  -6.5490  -6.5487  -6.5437  -6.5434
  0:     -6.3050  -6.3048  -6.2866  -6.2861  -4.9527  -4.9523  -4.8719  -4.8703
  0:     -4.7370  -4.7362  -4.7122  -4.7117  -3.5650  -3.5631  -3.4789  -3.4766
  0:     -3.0480  -3.0404  -2.7642  -2.7577  -2.7421  -2.7247  -2.6427  -2.6247
  0:     -2.1408  -2.1363  -2.1175  -2.1154  -1.6051  -1.6013  -1.5705  -1.5464
  0:     -1.4824  -1.4734  -1.2640  -1.2607  -0.8412  -0.8284  -0.4151  -0.3807
  0:     -0.2523  -0.2060  -0.1219  -0.0744   0.0151   0.1500   0.2216   0.2282
  0:      0.3222   0.3698   0.4521   0.5030   0.5231   0.5926   0.6669   0.7168
  0:      0.7358   0.7636   0.8052   0.8737   0.8889   0.9495   0.9666   0.9869
  0:      1.0169   1.0469   1.0578   1.1091   1.1307   1.1905   1.2052   1.2658
  0:      1.3410   1.3592   1.4342   1.4645   1.6047   1.6572   1.6994   1.7430
  0:      4.9898   5.0559   5.4911   5.5364   5.9774   6.0016   6.4325   6.4835
  0:      6.5758   6.6420   6.6980   6.7460   6.8615   6.9195   6.9621   7.1068
  0:      7.4854   7.5715   8.1957   8.2020   8.4622   8.4687   8.6471   8.6566
  0:      8.6684   8.6993   8.8307   8.8541   9.0740   9.0840   9.1946   9.2060
  0:      9.2168   9.2190   9.5532   9.5550   9.5925   9.6273   9.6947   9.7248
  0:      9.8241   9.8516   9.9930  10.0109  10.0208  10.0357  10.1826  10.2068
  0:     10.2562  10.2858  10.3752  10.4079  10.5203  10.5541  10.6166  10.6276
  0:     10.7090  10.7188  10.8550  10.8713  11.0329  11.0419  11.1058  11.1198
  0: 
  0:           k =-0.1752 0.0000 0.2143 ( 52593 PWs)   bands (ev):
  0: 
  0:    -17.1675 -17.1675 -17.1615 -17.1615 -15.0226 -15.0226 -15.0158 -15.0157
  0:    -14.9995 -14.9995 -14.9931 -14.9931 -13.2949 -13.2949 -13.2651 -13.2649
  0:    -12.5640 -12.5631 -12.5350 -12.5349 -12.5094 -12.5087 -12.4530 -12.4524
  0:    -12.4229 -12.4228 -12.4097 -12.4094 -11.9007 -11.9006 -11.8674 -11.8671
  0:    -11.5783 -11.5778 -11.3157 -11.3121 -11.2066 -11.2051 -11.1543 -11.1518
  0:    -11.0068 -11.0051 -10.9237 -10.9224  -9.4527  -9.4524  -9.3815  -9.3813
  0:     -7.8492  -7.8491  -7.7879  -7.7877  -6.5481  -6.5478  -6.5427  -6.5424
  0:     -6.3037  -6.3034  -6.2871  -6.2866  -4.9531  -4.9528  -4.8728  -4.8711
  0:     -4.7365  -4.7357  -4.7077  -4.7072  -3.5677  -3.5659  -3.4776  -3.4755
  0:     -3.0441  -3.0361  -2.7693  -2.7620  -2.7411  -2.7227  -2.6488  -2.6294
  0:     -2.1427  -2.1385  -2.1175  -2.1155  -1.6110  -1.6080  -1.5694  -1.5459
  0:     -1.4813  -1.4723  -1.2710  -1.2676  -0.8360  -0.8224  -0.4140  -0.3794
  0:     -0.2538  -0.2132  -0.1299  -0.0779   0.0208   0.1567   0.2226   0.2266
  0:      0.3227   0.3680   0.4494   0.5003   0.5271   0.5930   0.6696   0.7158
  0:      0.7363   0.7595   0.8091   0.8725   0.8927   0.9324   0.9653   0.9821
  0:      1.0179   1.0365   1.0613   1.1111   1.1342   1.1885   1.1962   1.2619
  0:      1.3412   1.3544   1.4328   1.4658   1.6188   1.6747   1.7010   1.7492
  0:      4.9897   5.0590   5.5029   5.5461   5.9786   6.0061   6.4418   6.4893
  0:      6.5745   6.6525   6.7151   6.7506   6.8686   6.9210   6.9650   7.1137
  0:      7.5284   7.6116   8.2084   8.2155   8.4558   8.4631   8.6271   8.6414
  0:      8.6539   8.7089   8.8114   8.8351   9.0896   9.1002   9.2079   9.2166
  0:      9.2423   9.2459   9.5311   9.5604   9.5762   9.5840   9.6978   9.7341
  0:      9.7977   9.8176   9.9728   9.9863  10.0136  10.0380  10.1618  10.1824
  0:     10.2612  10.2877  10.3777  10.4091  10.5004  10.5414  10.5979  10.6125
  0:     10.7084  10.7202  10.8229  10.8384  11.0431  11.0538  11.1273  11.1412
  0: 
  0:           k =-0.1928 0.0000 0.2357 ( 52590 PWs)   bands (ev):
  0: 
  0:    -17.1674 -17.1674 -17.1615 -17.1615 -15.0226 -15.0226 -15.0157 -15.0157
  0:    -14.9995 -14.9995 -14.9931 -14.9931 -13.2943 -13.2943 -13.2657 -13.2656
  0:    -12.5643 -12.5634 -12.5349 -12.5348 -12.5094 -12.5087 -12.4530 -12.4524
  0:    -12.4229 -12.4227 -12.4097 -12.4094 -11.9007 -11.9006 -11.8672 -11.8670
  0:    -11.5780 -11.5774 -11.3105 -11.3067 -11.2060 -11.2044 -11.1575 -11.1551
  0:    -11.0122 -11.0109 -10.9230 -10.9217  -9.4552  -9.4550  -9.3788  -9.3786
  0:     -7.8488  -7.8487  -7.7853  -7.7852  -6.5475  -6.5472  -6.5414  -6.5412
  0:     -6.3024  -6.3021  -6.2876  -6.2871  -4.9532  -4.9528  -4.8744  -4.8727
  0:     -4.7357  -4.7348  -4.7032  -4.7027  -3.5703  -3.5686  -3.4766  -3.4745
  0:     -3.0400  -3.0318  -2.7743  -2.7666  -2.7397  -2.7203  -2.6550  -2.6343
  0:     -2.1446  -2.1407  -2.1177  -2.1158  -1.6168  -1.6145  -1.5679  -1.5453
  0:     -1.4810  -1.4720  -1.2773  -1.2740  -0.8304  -0.8163  -0.4124  -0.3785
  0:     -0.2548  -0.2207  -0.1363  -0.0808   0.0281   0.1599   0.2236   0.2258
  0:      0.3257   0.3670   0.4468   0.4960   0.5315   0.5926   0.6712   0.7089
  0:      0.7352   0.7613   0.8102   0.8702   0.8957   0.9138   0.9600   0.9799
  0:      1.0122   1.0347   1.0630   1.1128   1.1348   1.1822   1.1963   1.2611
  0:      1.3403   1.3500   1.4345   1.4683   1.6324   1.6911   1.7033   1.7558
  0:      4.9897   5.0603   5.5145   5.5545   5.9805   6.0106   6.4463   6.4899
  0:      6.5791   6.6672   6.7306   6.7579   6.8782   6.9253   6.9684   7.1198
  0:      7.5725   7.6519   8.2218   8.2298   8.4467   8.4547   8.5981   8.6113
  0:      8.6628   8.7240   8.7988   8.8225   9.0991   9.1088   9.2115   9.2183
  0:      9.2758   9.2828   9.4900   9.5224   9.5790   9.5885   9.6922   9.7347
  0:      9.7750   9.7878   9.9499   9.9555  10.0180  10.0330  10.1474  10.1597
  0:     10.2644  10.2897  10.3765  10.3987  10.4902  10.5228  10.5857  10.5978
  0:     10.7123  10.7307  10.7931  10.8084  11.0486  11.0628  11.1503  11.1656
  0: 
  0:           k =-0.2103 0.0000 0.2571 ( 52593 PWs)   bands (ev):
  0: 
  0:    -17.1673 -17.1673 -17.1616 -17.1616 -15.0226 -15.0226 -15.0157 -15.0157
  0:    -14.9995 -14.9995 -14.9931 -14.9931 -13.2937 -13.2937 -13.2663 -13.2662
  0:    -12.5646 -12.5637 -12.5348 -12.5348 -12.5095 -12.5088 -12.4530 -12.4525
  0:    -12.4228 -12.4227 -12.4097 -12.4094 -11.9007 -11.9006 -11.8671 -11.8669
  0:    -11.5777 -11.5771 -11.3053 -11.3014 -11.2054 -11.2037 -11.1603 -11.1580
  0:    -11.0182 -11.0171 -10.9221 -10.9208  -9.4575  -9.4573  -9.3763  -9.3761
  0:     -7.8483  -7.8482  -7.7829  -7.7828  -6.5470  -6.5468  -6.5399  -6.5397
  0:     -6.3011  -6.3008  -6.2882  -6.2875  -4.9529  -4.9525  -4.8767  -4.8750
  0:     -4.7345  -4.7337  -4.6987  -4.6983  -3.5726  -3.5710  -3.4757  -3.4738
  0:     -3.0359  -3.0277  -2.7791  -2.7712  -2.7380  -2.7178  -2.6611  -2.6395
  0:     -2.1465  -2.1430  -2.1179  -2.1163  -1.6224  -1.6206  -1.5660  -1.5446
  0:     -1.4815  -1.4727  -1.2829  -1.2798  -0.8246  -0.8104  -0.4104  -0.3780
  0:     -0.2555  -0.2278  -0.1409  -0.0833   0.0370   0.1605   0.2232   0.2260
  0:      0.3304   0.3674   0.4443   0.4908   0.5360   0.5918   0.6716   0.6990
  0:      0.7316   0.7663   0.8086   0.8673   0.8913   0.9014   0.9540   0.9759
  0:      1.0061   1.0364   1.0610   1.1137   1.1342   1.1790   1.1998   1.2623
  0:      1.3385   1.3464   1.4384   1.4716   1.6450   1.7022   1.7103   1.7625
  0:      4.9900   5.0597   5.5256   5.5617   5.9833   6.0149   6.4461   6.4861
  0:      6.5898   6.6856   6.7391   6.7722   6.8898   6.9325   6.9722   7.1247
  0:      7.6174   7.6922   8.2340   8.2433   8.4331   8.4411   8.5724   8.5841
  0:      8.6763   8.7432   8.7914   8.8156   9.1031   9.1110   9.2111   9.2160
  0:      9.3090   9.3220   9.4457   9.4683   9.5966   9.6060   9.6768   9.7177
  0:      9.7551   9.7719   9.9306   9.9316  10.0156  10.0189  10.1397  10.1452
  0:     10.2641  10.2903  10.3638  10.3748  10.4939  10.5035  10.5808  10.5877
  0:     10.7173  10.7443  10.7674  10.7831  11.0485  11.0675  11.1706  11.1895
  0: 
  0:           k =-0.2278 0.0000 0.2786 ( 52589 PWs)   bands (ev):
  0: 
  0:    -17.1672 -17.1672 -17.1616 -17.1616 -15.0226 -15.0226 -15.0157 -15.0157
  0:    -14.9995 -14.9995 -14.9931 -14.9931 -13.2931 -13.2931 -13.2670 -13.2668
  0:    -12.5648 -12.5640 -12.5347 -12.5347 -12.5095 -12.5088 -12.4530 -12.4525
  0:    -12.4228 -12.4227 -12.4097 -12.4094 -11.9007 -11.9006 -11.8670 -11.8668
  0:    -11.5773 -11.5767 -11.3003 -11.2966 -11.2048 -11.2031 -11.1624 -11.1603
  0:    -11.0245 -11.0236 -10.9211 -10.9199  -9.4596  -9.4593  -9.3740  -9.3738
  0:     -7.8479  -7.8478  -7.7806  -7.7805  -6.5468  -6.5466  -6.5384  -6.5383
  0:     -6.3000  -6.2996  -6.2886  -6.2879  -4.9522  -4.9518  -4.8795  -4.8779
  0:     -4.7331  -4.7323  -4.6945  -4.6941  -3.5747  -3.5732  -3.4750  -3.4732
  0:     -3.0319  -3.0240  -2.7836  -2.7758  -2.7359  -2.7150  -2.6671  -2.6447
  0:     -2.1483  -2.1453  -2.1183  -2.1168  -1.6276  -1.6263  -1.5638  -1.5437
  0:     -1.4829  -1.4744  -1.2876  -1.2846  -0.8187  -0.8048  -0.4080  -0.3779
  0:     -0.2558  -0.2341  -0.1436  -0.0859   0.0473   0.1596   0.2222   0.2257
  0:      0.3349   0.3697   0.4419   0.4856   0.5404   0.5907   0.6706   0.6879
  0:      0.7260   0.7720   0.8055   0.8639   0.8746   0.9009   0.9491   0.9690
  0:      1.0038   1.0358   1.0568   1.1133   1.1361   1.1773   1.2059   1.2645
  0:      1.3365   1.3439   1.4439   1.4750   1.6566   1.7051   1.7246   1.7691
  0:      4.9907   5.0573   5.5359   5.5676   5.9868   6.0188   6.4426   6.4794
  0:      6.6045   6.7062   6.7416   6.7914   6.9024   6.9430   6.9760   7.1279
  0:      7.6628   7.7327   8.2421   8.2528   8.4153   8.4223   8.5550   8.5655
  0:      8.6928   8.7641   8.7888   8.8138   9.1020   9.1084   9.2090   9.2120
  0:      9.3285   9.3594   9.4078   9.4154   9.6145   9.6283   9.6610   9.6908
  0:      9.7412   9.7587   9.9131   9.9184   9.9983  10.0042  10.1330  10.1443
  0:     10.2588  10.2867  10.3336  10.3509  10.4904  10.5033  10.5785  10.5845
  0:     10.7174  10.7460  10.7598  10.7687  11.0412  11.0644  11.1707  11.1884
  0: 
  0:           k =-0.2453 0.0000 0.3000 ( 52612 PWs)   bands (ev):
  0: 
  0:    -17.1671 -17.1671 -17.1616 -17.1616 -15.0226 -15.0226 -15.0157 -15.0157
  0:    -14.9995 -14.9995 -14.9931 -14.9931 -13.2925 -13.2925 -13.2675 -13.2674
  0:    -12.5650 -12.5643 -12.5346 -12.5346 -12.5095 -12.5089 -12.4530 -12.4525
  0:    -12.4228 -12.4227 -12.4096 -12.4094 -11.9006 -11.9006 -11.8670 -11.8667
  0:    -11.5769 -11.5764 -11.2957 -11.2922 -11.2040 -11.2024 -11.1639 -11.1620
  0:    -11.0309 -11.0302 -10.9201 -10.9190  -9.4614  -9.4612  -9.3720  -9.3718
  0:     -7.8474  -7.8473  -7.7785  -7.7784  -6.5466  -6.5464  -6.5369  -6.5368
  0:     -6.2989  -6.2984  -6.2891  -6.2883  -4.9512  -4.9507  -4.8826  -4.8811
  0:     -4.7316  -4.7309  -4.6905  -4.6902  -3.5765  -3.5751  -3.4745  -3.4729
  0:     -3.0280  -3.0206  -2.7876  -2.7802  -2.7336  -2.7123  -2.6728  -2.6500
  0:     -2.1501  -2.1474  -2.1188  -2.1174  -1.6323  -1.6313  -1.5613  -1.5427
  0:     -1.4851  -1.4768  -1.2913  -1.2886  -0.8130  -0.7997  -0.4054  -0.3782
  0:     -0.2558  -0.2394  -0.1443  -0.0889   0.0590   0.1581   0.2211   0.2247
  0:      0.3374   0.3730   0.4401   0.4812   0.5444   0.5895   0.6680   0.6767
  0:      0.7195   0.7770   0.8023   0.8543   0.8638   0.8993   0.9445   0.9625
  0:      1.0038   1.0296   1.0552   1.1117   1.1406   1.1758   1.2139   1.2669
  0:      1.3348   1.3426   1.4501   1.4783   1.6670   1.7069   1.7386   1.7755
  0:      4.9920   5.0535   5.5451   5.5722   5.9908   6.0218   6.4377   6.4712
  0:      6.6213   6.7276   6.7418   6.8106   6.9148   6.9571   6.9799   7.1294
  0:      7.7085   7.7731   8.2407   8.2528   8.3985   8.4036   8.5467   8.5567
  0:      8.7108   8.7788   8.7971   8.8171   9.0965   9.1031   9.2052   9.2077
  0:      9.3089   9.3558   9.3923   9.4091   9.6144   9.6369   9.6669   9.6814
  0:      9.7303   9.7451   9.9012   9.9086   9.9765   9.9859  10.1303  10.1465
  0:     10.2467  10.2720  10.3074  10.3245  10.4837  10.5096  10.5778  10.5843
  0:     10.7125  10.7303  10.7694  10.7745  11.0262  11.0498  11.1551  11.1681
  0: 
  0:           k =-0.2629 0.0000 0.3214 ( 52601 PWs)   bands (ev):
  0: 
  0:    -17.1671 -17.1671 -17.1617 -17.1617 -15.0226 -15.0226 -15.0157 -15.0157
  0:    -14.9995 -14.9995 -14.9931 -14.9931 -13.2919 -13.2919 -13.2681 -13.2680
  0:    -12.5652 -12.5646 -12.5346 -12.5345 -12.5095 -12.5090 -12.4530 -12.4526
  0:    -12.4228 -12.4227 -12.4096 -12.4094 -11.9006 -11.9005 -11.8669 -11.8667
  0:    -11.5765 -11.5761 -11.2917 -11.2885 -11.2032 -11.2017 -11.1648 -11.1631
  0:    -11.0371 -11.0365 -10.9192 -10.9182  -9.4630  -9.4628  -9.3703  -9.3701
  0:     -7.8470  -7.8469  -7.7766  -7.7765  -6.5464  -6.5463  -6.5356  -6.5355
  0:     -6.2980  -6.2974  -6.2895  -6.2887  -4.9499  -4.9495  -4.8859  -4.8846
  0:     -4.7301  -4.7295  -4.6870  -4.6867  -3.5780  -3.5768  -3.4740  -3.4727
  0:     -3.0244  -3.0177  -2.7911  -2.7843  -2.7309  -2.7096  -2.6779  -2.6553
  0:     -2.1517  -2.1494  -2.1193  -2.1181  -1.6364  -1.6356  -1.5584  -1.5417
  0:     -1.4877  -1.4799  -1.2941  -1.2918  -0.8075  -0.7954  -0.4025  -0.3790
  0:     -0.2556  -0.2436  -0.1430  -0.0925   0.0718   0.1564   0.2198   0.2231
  0:      0.3377   0.3746   0.4397   0.4782   0.5484   0.5886   0.6635   0.6656
  0:      0.7142   0.7805   0.8003   0.8388   0.8606   0.8951   0.9392   0.9585
  0:      1.0042   1.0214   1.0564   1.1088   1.1464   1.1745   1.2227   1.2687
  0:      1.3337   1.3421   1.4565   1.4809   1.6760   1.7081   1.7515   1.7813
  0:      4.9940   5.0485   5.5532   5.5756   5.9952   6.0238   6.4327   6.4624
  0:      6.6384   6.7382   6.7513   6.8269   6.9265   6.9735   6.9847   7.1288
  0:      7.7545   7.8135   8.2242   8.2378   8.3897   8.3935   8.5455   8.5552
  0:      8.7289   8.7840   8.8180   8.8260   9.0882   9.0961   9.1945   9.2003
  0:      9.2719   9.3091   9.4117   9.4219   9.5981   9.6157   9.6935   9.7025
  0:      9.7274   9.7387   9.8919   9.8999   9.9571   9.9663  10.1270  10.1461
  0:     10.2256  10.2436  10.2955  10.3025  10.4791  10.5097  10.5762  10.5831
  0:     10.7119  10.7220  10.7783  10.7888  11.0046  11.0251  11.1418  11.1511
  0: 
  0:           k =-0.2804 0.0000 0.3428 ( 52601 PWs)   bands (ev):
  0: 
  0:    -17.1670 -17.1670 -17.1617 -17.1617 -15.0226 -15.0226 -15.0157 -15.0157
  0:    -14.9995 -14.9995 -14.9931 -14.9931 -13.2915 -13.2914 -13.2686 -13.2685
  0:    -12.5653 -12.5648 -12.5345 -12.5344 -12.5095 -12.5090 -12.4530 -12.4526
  0:    -12.4228 -12.4227 -12.4096 -12.4095 -11.9006 -11.9005 -11.8669 -11.8667
  0:    -11.5762 -11.5758 -11.2882 -11.2855 -11.2023 -11.2010 -11.1651 -11.1636
  0:    -11.0429 -11.0424 -10.9184 -10.9176  -9.4643  -9.4641  -9.3688  -9.3687
  0:     -7.8467  -7.8466  -7.7750  -7.7749  -6.5463  -6.5462  -6.5344  -6.5343
  0:     -6.2971  -6.2966  -6.2898  -6.2890  -4.9485  -4.9480  -4.8892  -4.8880
  0:     -4.7287  -4.7282  -4.6839  -4.6837  -3.5791  -3.5782  -3.4737  -3.4726
  0:     -3.0211  -3.0154  -2.7938  -2.7880  -2.7280  -2.7076  -2.6820  -2.6606
  0:     -2.1530  -2.1512  -2.1197  -2.1187  -1.6399  -1.6393  -1.5553  -1.5408
  0:     -1.4906  -1.4835  -1.2961  -1.2942  -0.8025  -0.7921  -0.3996  -0.3802
  0:     -0.2553  -0.2468  -0.1401  -0.0966   0.0853   0.1544   0.2185   0.2215
  0:      0.3365   0.3719   0.4417   0.4764   0.5531   0.5881   0.6542   0.6574
  0:      0.7122   0.7811   0.7997   0.8255   0.8583   0.8879   0.9352   0.9554
  0:      1.0040   1.0156   1.0589   1.1042   1.1525   1.1736   1.2315   1.2694
  0:      1.3336   1.3418   1.4627   1.4829   1.6839   1.7088   1.7630   1.7862
  0:      4.9968   5.0425   5.5602   5.5779   5.9998   6.0246   6.4287   6.4538
  0:      6.6550   6.7354   6.7721   6.8388   6.9374   6.9815   7.0000   7.1259
  0:      7.8004   7.8537   8.1932   8.2087   8.3896   8.3936   8.5488   8.5579
  0:      8.7469   8.7909   8.8376   8.8420   9.0792   9.0883   9.1665   9.1758
  0:      9.2546   9.2810   9.4171   9.4266   9.5792   9.5908   9.7165   9.7249
  0:      9.7416   9.7509   9.8828   9.8907   9.9422   9.9494  10.1187  10.1390
  0:     10.1991  10.2132  10.2869  10.2920  10.4743  10.5043  10.5705  10.5794
  0:     10.7179  10.7235  10.7902  10.8030  10.9795  10.9954  11.1320  11.1382
  0: 
  0:           k =-0.2979 0.0000 0.3643 ( 52592 PWs)   bands (ev):
  0: 
  0:    -17.1670 -17.1670 -17.1617 -17.1617 -15.0226 -15.0226 -15.0157 -15.0157
  0:    -14.9995 -14.9995 -14.9931 -14.9931 -13.2910 -13.2910 -13.2690 -13.2689
  0:    -12.5654 -12.5650 -12.5344 -12.5344 -12.5094 -12.5091 -12.4530 -12.4527
  0:    -12.4228 -12.4227 -12.4096 -12.4095 -11.9005 -11.9005 -11.8668 -11.8667
  0:    -11.5758 -11.5756 -11.2854 -11.2833 -11.2014 -11.2004 -11.1650 -11.1638
  0:    -11.0479 -11.0475 -10.9177 -10.9170  -9.4653  -9.4651  -9.3677  -9.3676
  0:     -7.8464  -7.8463  -7.7737  -7.7737  -6.5462  -6.5461  -6.5334  -6.5334
  0:     -6.2964  -6.2959  -6.2900  -6.2893  -4.9470  -4.9466  -4.8921  -4.8912
  0:     -4.7275  -4.7271  -4.6815  -4.6813  -3.5800  -3.5793  -3.4735  -3.4726
  0:     -3.0182  -3.0137  -2.7958  -2.7912  -2.7247  -2.7068  -2.6844  -2.6657
  0:     -2.1541  -2.1528  -2.1201  -2.1193  -1.6426  -1.6421  -1.5521  -1.5403
  0:     -1.4933  -1.4871  -1.2974  -1.2959  -0.7980  -0.7897  -0.3966  -0.3817
  0:     -0.2549  -0.2491  -0.1358  -0.1014   0.0991   0.1520   0.2174   0.2203
  0:      0.3346   0.3651   0.4457   0.4747   0.5594   0.5881   0.6439   0.6497
  0:      0.7143   0.7765   0.7999   0.8177   0.8565   0.8784   0.9336   0.9515
  0:      1.0038   1.0130   1.0622   1.0984   1.1582   1.1731   1.2398   1.2689
  0:      1.3344   1.3416   1.4684   1.4839   1.6906   1.7089   1.7727   1.7897
  0:      5.0004   5.0359   5.5660   5.5791   6.0045   6.0243   6.4260   6.4457
  0:      6.6704   6.7308   6.7919   6.8454   6.9477   6.9826   7.0223   7.1204
  0:      7.8461   7.8931   8.1540   8.1718   8.3942   8.3984   8.5542   8.5620
  0:      8.7660   8.8021   8.8546   8.8603   9.0705   9.0800   9.1234   9.1351
  0:      9.2600   9.2768   9.4090   9.4176   9.5616   9.5688   9.7363   9.7444
  0:      9.7682   9.7765   9.8731   9.8810   9.9327   9.9373  10.1054  10.1240
  0:     10.1744  10.1841  10.2820  10.2886  10.4693  10.4953  10.5638  10.5729
  0:     10.7273  10.7314  10.8048  10.8179  10.9533  10.9648  11.1249  11.1287
  0: 
  0:           k =-0.3154 0.0000 0.3857 ( 52594 PWs)   bands (ev):
  0: 
  0:    -17.1669 -17.1669 -17.1618 -17.1618 -15.0226 -15.0226 -15.0157 -15.0157
  0:    -14.9995 -14.9995 -14.9931 -14.9931 -13.2907 -13.2907 -13.2693 -13.2692
  0:    -12.5655 -12.5652 -12.5344 -12.5344 -12.5094 -12.5092 -12.4529 -12.4527
  0:    -12.4228 -12.4227 -12.4096 -12.4095 -11.9005 -11.9005 -11.8668 -11.8667
  0:    -11.5756 -11.5754 -11.2834 -11.2819 -11.2007 -11.2000 -11.1646 -11.1638
  0:    -11.0517 -11.0514 -10.9171 -10.9167  -9.4660  -9.4659  -9.3669  -9.3668
  0:     -7.8461  -7.8461  -7.7728  -7.7728  -6.5461  -6.5461  -6.5327  -6.5327
  0:     -6.2959  -6.2955  -6.2901  -6.2895  -4.9457  -4.9454  -4.8944  -4.8938
  0:     -4.7266  -4.7263  -4.6797  -4.6795  -3.5806  -3.5801  -3.4732  -3.4727
  0:     -3.0158  -3.0127  -2.7970  -2.7939  -2.7212  -2.7078  -2.6845  -2.6705
  0:     -2.1548  -2.1539  -2.1204  -2.1198  -1.6445  -1.6442  -1.5488  -1.5404
  0:     -1.4951  -1.4905  -1.2982  -1.2971  -0.7942  -0.7885  -0.3937  -0.3837
  0:     -0.2544  -0.2508  -0.1305  -0.1067   0.1124   0.1483   0.2168   0.2193
  0:      0.3336   0.3560   0.4510   0.4721   0.5674   0.5881   0.6355   0.6414
  0:      0.7203   0.7664   0.8017   0.8146   0.8552   0.8690   0.9339   0.9468
  0:      1.0047   1.0116   1.0664   1.0916   1.1630   1.1725   1.2473   1.2670
  0:      1.3357   1.3410   1.4733   1.4839   1.6961   1.7081   1.7805   1.7917
  0:      5.0048   5.0292   5.5707   5.5794   6.0091   6.0229   6.4251   6.4387
  0:      6.6845   6.7247   6.8094   6.8468   6.9572   6.9813   7.0451   7.1118
  0:      7.8908   7.9302   8.1130   8.1326   8.3999   8.4033   8.5596   8.5654
  0:      8.7874   8.8162   8.8702   8.8747   9.0587   9.0685   9.0876   9.0935
  0:      9.2755   9.2875   9.3902   9.3979   9.5479   9.5519   9.7587   9.7663
  0:      9.7929   9.8002   9.8638   9.8715   9.9271   9.9299  10.0927  10.1070
  0:     10.1525  10.1571  10.2817  10.2874  10.4656  10.4847  10.5588  10.5658
  0:     10.7363  10.7397  10.8228  10.8344  10.9280  10.9351  11.1201  11.1223
  0: 
  0:           k =-0.3330 0.0000 0.4071 ( 52605 PWs)   bands (ev):
  0: 
  0:    -17.1669 -17.1669 -17.1618 -17.1618 -15.0226 -15.0226 -15.0157 -15.0157
  0:    -14.9995 -14.9995 -14.9931 -14.9931 -13.2905 -13.2905 -13.2695 -13.2694
  0:    -12.5655 -12.5653 -12.5343 -12.5343 -12.5094 -12.5092 -12.4529 -12.4528
  0:    -12.4228 -12.4227 -12.4096 -12.4095 -11.9005 -11.9005 -11.8668 -11.8667
  0:    -11.5754 -11.5753 -11.2820 -11.2812 -11.2001 -11.1998 -11.1642 -11.1638
  0:    -11.0541 -11.0540 -10.9167 -10.9165  -9.4664  -9.4664  -9.3664  -9.3663
  0:     -7.8460  -7.8460  -7.7722  -7.7722  -6.5461  -6.5461  -6.5323  -6.5322
  0:     -6.2955  -6.2953  -6.2901  -6.2898  -4.9448  -4.9446  -4.8959  -4.8955
  0:     -4.7260  -4.7258  -4.6785  -4.6784  -3.5809  -3.5807  -3.4731  -3.4728
  0:     -3.0141  -3.0125  -2.7974  -2.7958  -2.7176  -2.7105  -2.6825  -2.6751
  0:     -2.1552  -2.1548  -2.1205  -2.1202  -1.6456  -1.6455  -1.5457  -1.5413
  0:     -1.4959  -1.4934  -1.2985  -1.2979  -0.7913  -0.7884  -0.3909  -0.3859
  0:     -0.2538  -0.2521  -0.1246  -0.1124   0.1245   0.1427   0.2168   0.2184
  0:      0.3349   0.3467   0.4568   0.4680   0.5761   0.5870   0.6304   0.6339
  0:      0.7294   0.7536   0.8051   0.8124   0.8551   0.8614   0.9356   0.9423
  0:      1.0064   1.0102   1.0716   1.0846   1.1668   1.1714   1.2539   1.2638
  0:      1.3373   1.3401   1.4775   1.4828   1.7006   1.7065   1.7864   1.7920
  0:      5.0101   5.0224   5.5744   5.5787   6.0135   6.0205   6.4260   6.4329
  0:      6.6970   6.7171   6.8242   6.8434   6.9656   6.9779   7.0663   7.1000
  0:      7.9323   7.9593   8.0786   8.0956   8.4043   8.4062   8.5638   8.5669
  0:      8.8093   8.8271   8.8815   8.8844   9.0364   9.0453   9.0740   9.0758
  0:      9.2958   9.3044   9.3670   9.3739   9.5396   9.5415   9.7789   9.7842
  0:      9.8109   9.8161   9.8568   9.8630   9.9237   9.9255  10.0879  10.0962
  0:     10.1337  10.1344  10.2835  10.2868  10.4648  10.4750  10.5564  10.5601
  0:     10.7427  10.7446  10.8438  10.8518  10.9046  10.9083  11.1175  11.1185
  0: 
  0:           k =-0.3505 0.0000 0.4285 ( 52616 PWs)   bands (ev):
  0: 
  0:    -17.1669 -17.1669 -17.1618 -17.1618 -15.0226 -15.0226 -15.0157 -15.0157
  0:    -14.9995 -14.9995 -14.9931 -14.9931 -13.2905 -13.2905 -13.2695 -13.2695
  0:    -12.5654 -12.5654 -12.5343 -12.5343 -12.5093 -12.5093 -12.4528 -12.4528
  0:    -12.4227 -12.4227 -12.4095 -12.4095 -11.9005 -11.9005 -11.8668 -11.8668
  0:    -11.5753 -11.5753 -11.2813 -11.2813 -11.1998 -11.1998 -11.1639 -11.1639
  0:    -11.0549 -11.0549 -10.9165 -10.9165  -9.4666  -9.4666  -9.3662  -9.3662
  0:     -7.8459  -7.8459  -7.7720  -7.7720  -6.5461  -6.5461  -6.5321  -6.5321
  0:     -6.2953  -6.2953  -6.2899  -6.2899  -4.9444  -4.9444  -4.8963  -4.8963
  0:     -4.7257  -4.7257  -4.6781  -4.6781  -3.5810  -3.5810  -3.4729  -3.4729
  0:     -3.0129  -3.0129  -2.7970  -2.7970  -2.7139  -2.7139  -2.6792  -2.6792
  0:     -2.1552  -2.1552  -2.1204  -2.1204  -1.6460  -1.6460  -1.5431  -1.5431
  0:     -1.4952  -1.4952  -1.2984  -1.2984  -0.7893  -0.7893  -0.3883  -0.3883
  0:     -0.2530  -0.2530  -0.1185  -0.1185   0.1348   0.1348   0.2175   0.2175
  0:      0.3393   0.3393   0.4627   0.4627   0.5832   0.5832   0.6297   0.6297
  0:      0.7408   0.7408   0.8091   0.8091   0.8569   0.8569   0.9384   0.9384
  0:      1.0084   1.0084   1.0778   1.0778   1.1696   1.1696   1.2594   1.2594
  0:      1.3389   1.3389   1.4806   1.4806   1.7040   1.7040   1.7902   1.7902
  0:      5.0160   5.0160   5.5770   5.5770   6.0173   6.0173   6.4286   6.4286
  0:      6.7078   6.7078   6.8357   6.8357   6.9726   6.9726   7.0848   7.0848
  0:      7.9618   7.9618   8.0708   8.0708   8.4066   8.4066   8.5664   8.5664
  0:      8.8252   8.8252   8.8869   8.8869   9.0285   9.0285   9.0723   9.0723
  0:      9.3122   9.3122   9.3564   9.3564   9.5374   9.5374   9.7892   9.7892
  0:      9.8200   9.8200   9.8565   9.8565   9.9229   9.9229  10.0913  10.0913
  0:     10.1244  10.1244  10.2856  10.2856  10.4680  10.4680  10.5569  10.5569
  0:     10.7456  10.7456  10.8604  10.8604  10.8919  10.8919  11.1169  11.1169
  0: 
  0:           k =-0.3505 0.0235 0.4285 ( 52622 PWs)   bands (ev):
  0: 
  0:    -17.1669 -17.1669 -17.1618 -17.1618 -15.0226 -15.0226 -15.0158 -15.0157
  0:    -14.9995 -14.9995 -14.9932 -14.9931 -13.2904 -13.2904 -13.2696 -13.2695
  0:    -12.5655 -12.5652 -12.5344 -12.5341 -12.5096 -12.5091 -12.4533 -12.4527
  0:    -12.4228 -12.4226 -12.4096 -12.4095 -11.9005 -11.9004 -11.8669 -11.8669
  0:    -11.5751 -11.5750 -11.2829 -11.2817 -11.2020 -11.1971 -11.1648 -11.1609
  0:    -11.0552 -11.0549 -10.9169 -10.9166  -9.4663  -9.4663  -9.3663  -9.3663
  0:     -7.8459  -7.8459  -7.7722  -7.7721  -6.5460  -6.5460  -6.5321  -6.5321
  0:     -6.2953  -6.2953  -6.2900  -6.2899  -4.9442  -4.9441  -4.8962  -4.8962
  0:     -4.7259  -4.7258  -4.6784  -4.6783  -3.5811  -3.5809  -3.4737  -3.4733
  0:     -3.0126  -3.0125  -2.7969  -2.7969  -2.7143  -2.7139  -2.6796  -2.6795
  0:     -2.1554  -2.1554  -2.1206  -2.1206  -1.6469  -1.6461  -1.5425  -1.5405
  0:     -1.4951  -1.4949  -1.2993  -1.2984  -0.7883  -0.7874  -0.3910  -0.3850
  0:     -0.2549  -0.2511  -0.1215  -0.1153   0.1314   0.1362   0.2107   0.2241
  0:      0.3389   0.3409   0.4559   0.4670   0.5801   0.5854   0.6208   0.6389
  0:      0.7397   0.7431   0.8027   0.8156   0.8532   0.8599   0.9353   0.9399
  0:      1.0016   1.0151   1.0779   1.0781   1.1692   1.1712   1.2569   1.2624
  0:      1.3351   1.3425   1.4773   1.4846   1.7039   1.7041   1.7900   1.7914
  0:      5.0138   5.0191   5.5710   5.5816   6.0123   6.0225   6.4249   6.4294
  0:      6.7056   6.7104   6.8315   6.8393   6.9673   6.9769   7.0824   7.0863
  0:      7.9599   7.9610   8.0706   8.0732   8.4057   8.4072   8.5675   8.5687
  0:      8.8239   8.8243   8.8832   8.8852   9.0296   9.0308   9.0720   9.0737
  0:      9.3108   9.3144   9.3499   9.3627   9.5329   9.5466   9.7912   9.7915
  0:      9.8169   9.8199   9.8564   9.8603   9.9211   9.9245  10.0890  10.0939
  0:     10.1220  10.1248  10.2795  10.2939  10.4643  10.4658  10.5561  10.5592
  0:     10.7472  10.7478  10.8607  10.8635  10.8875  10.8917  11.1173  11.1189
  0: 
  0:           k =-0.3505 0.0471 0.4285 ( 52622 PWs)   bands (ev):
  0: 
  0:    -17.1669 -17.1669 -17.1618 -17.1618 -15.0226 -15.0225 -15.0158 -15.0157
  0:    -14.9995 -14.9995 -14.9933 -14.9931 -13.2903 -13.2903 -13.2697 -13.2696
  0:    -12.5655 -12.5647 -12.5342 -12.5338 -12.5101 -12.5091 -12.4542 -12.4529
  0:    -12.4227 -12.4224 -12.4096 -12.4094 -11.9006 -11.9004 -11.8673 -11.8673
  0:    -11.5743 -11.5742 -11.2866 -11.2844 -11.2032 -11.1943 -11.1633 -11.1563
  0:    -11.0558 -11.0551 -10.9178 -10.9171  -9.4656  -9.4656  -9.3666  -9.3666
  0:     -7.8456  -7.8456  -7.7726  -7.7726  -6.5460  -6.5459  -6.5322  -6.5322
  0:     -6.2953  -6.2952  -6.2900  -6.2899  -4.9435  -4.9433  -4.8960  -4.8959
  0:     -4.7263  -4.7262  -4.6790  -4.6790  -3.5815  -3.5811  -3.4755  -3.4747
  0:     -3.0115  -3.0113  -2.7966  -2.7966  -2.7151  -2.7143  -2.6808  -2.6806
  0:     -2.1560  -2.1559  -2.1212  -2.1212  -1.6488  -1.6473  -1.5388  -1.5351
  0:     -1.4944  -1.4941  -1.3013  -1.2995  -0.7845  -0.7827  -0.3928  -0.3812
  0:     -0.2568  -0.2490  -0.1242  -0.1120   0.1267   0.1350   0.2042   0.2300
  0:      0.3396   0.3438   0.4468   0.4688   0.5767   0.5862   0.6131   0.6478
  0:      0.7398   0.7460   0.7972   0.8209   0.8488   0.8627   0.9310   0.9398
  0:      0.9954   1.0206   1.0778   1.0794   1.1692   1.1743   1.2551   1.2653
  0:      1.3311   1.3460   1.4746   1.4890   1.7038   1.7043   1.7908   1.7936
  0:      5.0128   5.0232   5.5635   5.5844   6.0075   6.0275   6.4182   6.4276
  0:      6.7036   6.7132   6.8269   6.8418   6.9611   6.9801   7.0795   7.0869
  0:      7.9556   7.9573   8.0722   8.0773   8.4047   8.4074   8.5722   8.5744
  0:      8.8202   8.8215   8.8744   8.8787   9.0339   9.0362   9.0730   9.0762
  0:      9.3101   9.3172   9.3442   9.3683   9.5335   9.5590   9.7967   9.7984
  0:      9.8107   9.8168   9.8599   9.8679   9.9199   9.9258  10.0878  10.0960
  0:     10.1177  10.1233  10.2761  10.3038  10.4552  10.4578  10.5570  10.5631
  0:     10.7519  10.7541  10.8648  10.8675  10.8809  10.8872  11.1191  11.1226
  0: 
  0:           k =-0.3505 0.0706 0.4285 ( 52608 PWs)   bands (ev):
  0: 
  0:    -17.1668 -17.1668 -17.1618 -17.1618 -15.0226 -15.0224 -15.0159 -15.0158
  0:    -14.9994 -14.9994 -14.9934 -14.9931 -13.2902 -13.2902 -13.2699 -13.2698
  0:    -12.5652 -12.5641 -12.5339 -12.5332 -12.5107 -12.5092 -12.4554 -12.4534
  0:    -12.4226 -12.4221 -12.4096 -12.4094 -11.9006 -11.9003 -11.8680 -11.8679
  0:    -11.5729 -11.5729 -11.2918 -11.2891 -11.2033 -11.1919 -11.1594 -11.1504
  0:    -11.0566 -11.0556 -10.9192 -10.9181  -9.4645  -9.4645  -9.3671  -9.3671
  0:     -7.8451  -7.8451  -7.7733  -7.7733  -6.5458  -6.5458  -6.5323  -6.5323
  0:     -6.2952  -6.2951  -6.2900  -6.2899  -4.9423  -4.9420  -4.8956  -4.8954
  0:     -4.7269  -4.7267  -4.6802  -4.6801  -3.5821  -3.5814  -3.4783  -3.4771
  0:     -3.0096  -3.0094  -2.7961  -2.7961  -2.7164  -2.7152  -2.6827  -2.6825
  0:     -2.1570  -2.1569  -2.1221  -2.1221  -1.6509  -1.6491  -1.5326  -1.5275
  0:     -1.4932  -1.4928  -1.3043  -1.3017  -0.7778  -0.7753  -0.3936  -0.3770
  0:     -0.2587  -0.2470  -0.1265  -0.1089   0.1210   0.1310   0.1982   0.2344
  0:      0.3412   0.3479   0.4356   0.4686   0.5730   0.5841   0.6078   0.6562
  0:      0.7409   0.7488   0.7939   0.8240   0.8436   0.8657   0.9264   0.9387
  0:      0.9901   1.0240   1.0775   1.0820   1.1691   1.1791   1.2544   1.2679
  0:      1.3272   1.3494   1.4725   1.4937   1.7036   1.7045   1.7925   1.7967
  0:      5.0129   5.0282   5.5549   5.5853   6.0032   6.0324   6.4085   6.4237
  0:      6.7014   6.7161   6.8223   6.8429   6.9539   6.9819   7.0764   7.0867
  0:      7.9494   7.9515   8.0753   8.0828   8.4039   8.4074   8.5800   8.5830
  0:      8.8136   8.8171   8.8614   8.8690   9.0406   9.0440   9.0752   9.0795
  0:      9.3102   9.3207   9.3405   9.3733   9.5385   9.5727   9.8001   9.8008
  0:      9.8107   9.8153   9.8671   9.8794   9.9202   9.9273  10.0881  10.0966
  0:     10.1123  10.1201  10.2754  10.3138  10.4413  10.4449  10.5594  10.5682
  0:     10.7586  10.7642  10.8624  10.8706  10.8820  10.8827  11.1204  11.1257
  0: 
  0:           k =-0.3505 0.0942 0.4285 ( 52610 PWs)   bands (ev):
  0: 
  0:    -17.1668 -17.1668 -17.1619 -17.1619 -15.0225 -15.0223 -15.0159 -15.0158
  0:    -14.9994 -14.9993 -14.9935 -14.9931 -13.2900 -13.2899 -13.2701 -13.2700
  0:    -12.5648 -12.5633 -12.5334 -12.5326 -12.5114 -12.5095 -12.4569 -12.4542
  0:    -12.4224 -12.4217 -12.4097 -12.4093 -11.9006 -11.9003 -11.8689 -11.8688
  0:    -11.5711 -11.5710 -11.2985 -11.2955 -11.2022 -11.1898 -11.1535 -11.1436
  0:    -11.0576 -11.0563 -10.9211 -10.9196  -9.4630  -9.4629  -9.3678  -9.3678
  0:     -7.8445  -7.8445  -7.7743  -7.7742  -6.5457  -6.5456  -6.5325  -6.5324
  0:     -6.2951  -6.2950  -6.2901  -6.2900  -4.9406  -4.9402  -4.8951  -4.8948
  0:     -4.7277  -4.7275  -4.6817  -4.6816  -3.5828  -3.5819  -3.4821  -3.4806
  0:     -3.0069  -3.0067  -2.7954  -2.7954  -2.7181  -2.7165  -2.6853  -2.6852
  0:     -2.1583  -2.1582  -2.1234  -2.1233  -1.6529  -1.6508  -1.5244  -1.5183
  0:     -1.4915  -1.4909  -1.3081  -1.3048  -0.7684  -0.7654  -0.3932  -0.3724
  0:     -0.2607  -0.2452  -0.1283  -0.1062   0.1147   0.1243   0.1926   0.2369
  0:      0.3434   0.3533   0.4232   0.4669   0.5692   0.5791   0.6055   0.6641
  0:      0.7424   0.7504   0.7937   0.8240   0.8378   0.8696   0.9219   0.9377
  0:      0.9855   1.0252   1.0769   1.0859   1.1683   1.1854   1.2547   1.2698
  0:      1.3236   1.3527   1.4710   1.4984   1.7036   1.7050   1.7950   1.8006
  0:      5.0143   5.0340   5.5452   5.5840   5.9998   6.0369   6.3961   6.4183
  0:      6.6988   6.7186   6.8181   6.8423   6.9462   6.9820   7.0734   7.0857
  0:      7.9420   7.9440   8.0794   8.0888   8.4035   8.4074   8.5906   8.5940
  0:      8.8035   8.8109   8.8461   8.8581   9.0493   9.0536   9.0783   9.0834
  0:      9.3112   9.3246   9.3395   9.3784   9.5462   9.5858   9.7870   9.7927
  0:      9.8259   9.8265   9.8778   9.8949   9.9224   9.9295  10.0899  10.0943
  0:     10.1077  10.1161  10.2767  10.3230  10.4235  10.4282  10.5631  10.5742
  0:     10.7667  10.7772  10.8503  10.8645  10.8905  10.8919  11.1194  11.1261
  0: 
  0:           k =-0.3505 0.1177 0.4285 ( 52600 PWs)   bands (ev):
  0: 
  0:    -17.1667 -17.1667 -17.1619 -17.1619 -15.0224 -15.0222 -15.0160 -15.0159
  0:    -14.9993 -14.9992 -14.9936 -14.9932 -13.2897 -13.2897 -13.2704 -13.2703
  0:    -12.5643 -12.5623 -12.5327 -12.5318 -12.5122 -12.5099 -12.4586 -12.4554
  0:    -12.4221 -12.4213 -12.4097 -12.4092 -11.9007 -11.9002 -11.8700 -11.8699
  0:    -11.5686 -11.5685 -11.3062 -11.3032 -11.2002 -11.1875 -11.1462 -11.1360
  0:    -11.0590 -11.0573 -10.9233 -10.9216  -9.4610  -9.4610  -9.3688  -9.3687
  0:     -7.8437  -7.8437  -7.7755  -7.7754  -6.5455  -6.5454  -6.5327  -6.5326
  0:     -6.2950  -6.2949  -6.2901  -6.2900  -4.9385  -4.9379  -4.8944  -4.8941
  0:     -4.7287  -4.7285  -4.6837  -4.6836  -3.5836  -3.5825  -3.4868  -3.4849
  0:     -3.0035  -3.0032  -2.7946  -2.7946  -2.7202  -2.7183  -2.6887  -2.6887
  0:     -2.1598  -2.1597  -2.1250  -2.1249  -1.6541  -1.6518  -1.5149  -1.5084
  0:     -1.4893  -1.4884  -1.3128  -1.3090  -0.7566  -0.7532  -0.3913  -0.3674
  0:     -0.2628  -0.2439  -0.1295  -0.1042   0.1079   0.1151   0.1868   0.2369
  0:      0.3455   0.3597   0.4108   0.4642   0.5653   0.5725   0.6049   0.6715
  0:      0.7433   0.7502   0.7969   0.8214   0.8317   0.8747   0.9180   0.9376
  0:      0.9813   1.0249   1.0760   1.0906   1.1663   1.1928   1.2555   1.2711
  0:      1.3208   1.3558   1.4698   1.5028   1.7038   1.7058   1.7981   1.8051
  0:      5.0171   5.0406   5.5345   5.5803   5.9974   6.0411   6.3814   6.4117
  0:      6.6953   6.7202   6.8149   6.8393   6.9385   6.9803   7.0706   7.0842
  0:      7.9342   7.9356   8.0838   8.0946   8.4041   8.4076   8.6033   8.6067
  0:      8.7899   8.8023   8.8309   8.8476   9.0593   9.0645   9.0822   9.0875
  0:      9.3130   9.3288   9.3412   9.3846   9.5550   9.5973   9.7710   9.7788
  0:      9.8417   9.8450   9.8919   9.9144   9.9266   9.9332  10.0889  10.0930
  0:     10.1056  10.1122  10.2794  10.3304  10.4028  10.4089  10.5676  10.5805
  0:     10.7758  10.7919  10.8374  10.8528  10.9031  10.9068  11.1159  11.1226
  0: 
  0:           k =-0.3505 0.1413 0.4285 ( 52598 PWs)   bands (ev):
  0: 
  0:    -17.1666 -17.1666 -17.1620 -17.1620 -15.0223 -15.0221 -15.0161 -15.0159
  0:    -14.9992 -14.9991 -14.9938 -14.9933 -13.2894 -13.2893 -13.2708 -13.2706
  0:    -12.5635 -12.5612 -12.5319 -12.5309 -12.5130 -12.5105 -12.4607 -12.4568
  0:    -12.4217 -12.4208 -12.4097 -12.4092 -11.9007 -11.9002 -11.8714 -11.8713
  0:    -11.5656 -11.5655 -11.3148 -11.3119 -11.1975 -11.1851 -11.1379 -11.1278
  0:    -11.0606 -11.0587 -10.9261 -10.9240  -9.4586  -9.4586  -9.3699  -9.3699
  0:     -7.8427  -7.8427  -7.7770  -7.7769  -6.5452  -6.5451  -6.5329  -6.5328
  0:     -6.2949  -6.2947  -6.2902  -6.2900  -4.9359  -4.9352  -4.8936  -4.8932
  0:     -4.7299  -4.7296  -4.6861  -4.6860  -3.5845  -3.5832  -3.4922  -3.4900
  0:     -2.9993  -2.9990  -2.7937  -2.7936  -2.7229  -2.7206  -2.6928  -2.6926
  0:     -2.1616  -2.1615  -2.1268  -2.1268  -1.6542  -1.6519  -1.5047  -1.4985
  0:     -1.4866  -1.4848  -1.3184  -1.3140  -0.7425  -0.7390  -0.3880  -0.3618
  0:     -0.2648  -0.2434  -0.1302  -0.1033   0.1009   0.1043   0.1805   0.2338
  0:      0.3466   0.3666   0.4003   0.4613   0.5613   0.5658   0.6051   0.6786
  0:      0.7425   0.7484   0.8023   0.8179   0.8264   0.8806   0.9149   0.9386
  0:      0.9772   1.0236   1.0752   1.0953   1.1632   1.2008   1.2560   1.2717
  0:      1.3195   1.3588   1.4688   1.5067   1.7044   1.7072   1.8016   1.8102
  0:      5.0214   5.0480   5.5228   5.5741   5.9965   6.0449   6.3647   6.4046
  0:      6.6907   6.7206   6.8129   6.8334   6.9318   6.9768   7.0679   7.0824
  0:      7.9266   7.9271   8.0880   8.0994   8.4061   8.4085   8.6174   8.6201
  0:      8.7737   8.7901   8.8184   8.8381   9.0701   9.0762   9.0869   9.0919
  0:      9.3159   9.3334   9.3456   9.3920   9.5638   9.6068   9.7530   9.7626
  0:      9.8578   9.8624   9.9087   9.9314   9.9385   9.9402  10.0828  10.0974
  0:     10.1057  10.1100  10.2831  10.3352  10.3805  10.3884  10.5722  10.5860
  0:     10.7855  10.8055  10.8266  10.8403  10.9153  10.9258  11.1114  11.1168
  0: 
  0:           k =-0.3505 0.1648 0.4285 ( 52598 PWs)   bands (ev):
  0: 
  0:    -17.1665 -17.1665 -17.1621 -17.1621 -15.0222 -15.0219 -15.0163 -15.0160
  0:    -14.9991 -14.9990 -14.9939 -14.9934 -13.2890 -13.2889 -13.2712 -13.2710
  0:    -12.5627 -12.5599 -12.5309 -12.5300 -12.5138 -12.5113 -12.4630 -12.4585
  0:    -12.4213 -12.4203 -12.4097 -12.4091 -11.9007 -11.9001 -11.8729 -11.8728
  0:    -11.5621 -11.5620 -11.3241 -11.3214 -11.1940 -11.1822 -11.1289 -11.1191
  0:    -11.0625 -11.0604 -10.9293 -10.9269  -9.4559  -9.4559  -9.3713  -9.3712
  0:     -7.8415  -7.8415  -7.7787  -7.7786  -6.5449  -6.5448  -6.5331  -6.5331
  0:     -6.2947  -6.2945  -6.2903  -6.2901  -4.9330  -4.9322  -4.8927  -4.8922
  0:     -4.7313  -4.7309  -4.6889  -4.6888  -3.5855  -3.5839  -3.4983  -3.4957
  0:     -2.9943  -2.9939  -2.7927  -2.7924  -2.7261  -2.7234  -2.6976  -2.6970
  0:     -2.1635  -2.1634  -2.1290  -2.1290  -1.6531  -1.6507  -1.4942  -1.4904
  0:     -1.4833  -1.4791  -1.3246  -1.3199  -0.7264  -0.7230  -0.3831  -0.3556
  0:     -0.2667  -0.2438  -0.1307  -0.1042   0.0923   0.0936   0.1732   0.2271
  0:      0.3455   0.3737   0.3939   0.4589   0.5574   0.5595   0.6055   0.6854
  0:      0.7391   0.7451   0.8065   0.8154   0.8250   0.8867   0.9125   0.9401
  0:      0.9734   1.0219   1.0748   1.0997   1.1588   1.2086   1.2552   1.2719
  0:      1.3206   1.3616   1.4677   1.5098   1.7054   1.7093   1.8053   1.8154
  0:      5.0272   5.0562   5.5102   5.5652   5.9974   6.0483   6.3464   6.3973
  0:      6.6847   6.7194   6.8121   6.8240   6.9269   6.9716   7.0651   7.0802
  0:      7.9191   7.9196   8.0912   8.1025   8.4101   8.4108   8.6322   8.6333
  0:      8.7561   8.7748   8.8099   8.8296   9.0810   9.0871   9.0935   9.0969
  0:      9.3198   9.3383   9.3522   9.4006   9.5720   9.6145   9.7342   9.7454
  0:      9.8706   9.8741   9.9227   9.9373   9.9561   9.9657  10.0790  10.1030
  0:     10.1079  10.1114  10.2873  10.3370  10.3579  10.3688  10.5761  10.5896
  0:     10.7957  10.8070  10.8280  10.8281  10.9282  10.9459  11.1077  11.1112
  0: 
  0:           k =-0.3505 0.1883 0.4285 ( 52596 PWs)   bands (ev):
  0: 
  0:    -17.1664 -17.1664 -17.1622 -17.1622 -15.0220 -15.0217 -15.0164 -15.0162
  0:    -14.9990 -14.9988 -14.9941 -14.9935 -13.2885 -13.2885 -13.2716 -13.2715
  0:    -12.5617 -12.5584 -12.5297 -12.5292 -12.5145 -12.5122 -12.4655 -12.4604
  0:    -12.4208 -12.4197 -12.4098 -12.4091 -11.9006 -11.9000 -11.8745 -11.8744
  0:    -11.5580 -11.5578 -11.3340 -11.3315 -11.1900 -11.1788 -11.1195 -11.1102
  0:    -11.0647 -11.0624 -10.9329 -10.9302  -9.4529  -9.4529  -9.3728  -9.3727
  0:     -7.8402  -7.8401  -7.7806  -7.7805  -6.5446  -6.5445  -6.5334  -6.5333
  0:     -6.2946  -6.2943  -6.2904  -6.2901  -4.9297  -4.9287  -4.8917  -4.8911
  0:     -4.7327  -4.7323  -4.6921  -4.6919  -3.5864  -3.5847  -3.5049  -3.5020
  0:     -2.9886  -2.9881  -2.7917  -2.7913  -2.7300  -2.7269  -2.7027  -2.7017
  0:     -2.1654  -2.1654  -2.1314  -2.1314  -1.6505  -1.6480  -1.4851  -1.4846
  0:     -1.4789  -1.4706  -1.3315  -1.3266  -0.7086  -0.7055  -0.3766  -0.3486
  0:     -0.2683  -0.2453  -0.1312  -0.1072   0.0798   0.0863   0.1646   0.2164
  0:      0.3422   0.3802   0.3923   0.4577   0.5538   0.5541   0.6062   0.6923
  0:      0.7328   0.7400   0.8061   0.8147   0.8310   0.8926   0.9107   0.9413
  0:      0.9702   1.0201   1.0750   1.1035   1.1533   1.2156   1.2524   1.2722
  0:      1.3244   1.3643   1.4664   1.5118   1.7071   1.7122   1.8088   1.8205
  0:      5.0347   5.0653   5.4966   5.5534   6.0003   6.0513   6.3270   6.3901
  0:      6.6773   6.7169   6.8112   6.8122   6.9244   6.9654   7.0620   7.0775
  0:      7.9120   7.9137   8.0928   8.1032   8.4151   8.4165   8.6450   8.6466
  0:      8.7388   8.7590   8.8043   8.8217   9.0899   9.0940   9.1041   9.1048
  0:      9.3247   9.3434   9.3607   9.4102   9.5797   9.6210   9.7153   9.7279
  0:      9.8766   9.8779   9.9291   9.9419   9.9834   9.9964  10.0796  10.1096
  0:     10.1131  10.1179  10.2918  10.3342  10.3373  10.3539  10.5780  10.5900
  0:     10.7982  10.8054  10.8180  10.8389  10.9419  10.9655  11.1067  11.1086
  0: 
  0:           k =-0.3505 0.2119 0.4285 ( 52584 PWs)   bands (ev):
  0: 
  0:    -17.1662 -17.1662 -17.1623 -17.1623 -15.0219 -15.0215 -15.0166 -15.0163
  0:    -14.9989 -14.9987 -14.9943 -14.9936 -13.2880 -13.2880 -13.2722 -13.2720
  0:    -12.5606 -12.5568 -12.5286 -12.5283 -12.5149 -12.5133 -12.4682 -12.4625
  0:    -12.4203 -12.4191 -12.4099 -12.4092 -11.9006 -11.8999 -11.8763 -11.8762
  0:    -11.5533 -11.5531 -11.3443 -11.3420 -11.1855 -11.1750 -11.1099 -11.1011
  0:    -11.0672 -11.0647 -10.9369 -10.9340  -9.4496  -9.4496  -9.3746  -9.3745
  0:     -7.8386  -7.8386  -7.7827  -7.7826  -6.5442  -6.5441  -6.5338  -6.5336
  0:     -6.2944  -6.2941  -6.2904  -6.2902  -4.9260  -4.9250  -4.8906  -4.8899
  0:     -4.7343  -4.7338  -4.6955  -4.6953  -3.5874  -3.5853  -3.5119  -3.5087
  0:     -2.9821  -2.9814  -2.7909  -2.7901  -2.7345  -2.7313  -2.7080  -2.7066
  0:     -2.1673  -2.1673  -2.1341  -2.1340  -1.6463  -1.6438  -1.4813  -1.4789
  0:     -1.4707  -1.4609  -1.3389  -1.3338  -0.6893  -0.6867  -0.3688  -0.3407
  0:     -0.2695  -0.2481  -0.1323  -0.1130   0.0674   0.0790   0.1549   0.2022
  0:      0.3384   0.3859   0.3942   0.4580   0.5497   0.5505   0.6071   0.6992
  0:      0.7246   0.7331   0.8042   0.8159   0.8412   0.8978   0.9096   0.9410
  0:      0.9686   1.0184   1.0761   1.1067   1.1470   1.2212   1.2476   1.2730
  0:      1.3307   1.3668   1.4645   1.5126   1.7097   1.7162   1.8120   1.8253
  0:      5.0439   5.0753   5.4820   5.5388   6.0055   6.0542   6.3068   6.3828
  0:      6.6685   6.7135   6.7958   6.8126   6.9241   6.9588   7.0583   7.0741
  0:      7.9065   7.9093   8.0921   8.1012   8.4220   8.4256   8.6541   8.6597
  0:      8.7230   8.7447   8.8009   8.8143   9.0955   9.0996   9.1147   9.1181
  0:      9.3304   9.3488   9.3704   9.4200   9.5870   9.6268   9.6972   9.7109
  0:      9.8735   9.8741   9.9309   9.9440  10.0156  10.0288  10.0858  10.1166
  0:     10.1216  10.1297  10.2957  10.3224  10.3259  10.3480  10.5767  10.5859
  0:     10.7897  10.8049  10.8202  10.8481  10.9566  10.9831  11.1096  11.1104
  0: 
  0:           k =-0.3505 0.2354 0.4285 ( 52582 PWs)   bands (ev):
  0: 
  0:    -17.1661 -17.1661 -17.1624 -17.1624 -15.0217 -15.0213 -15.0168 -15.0164
  0:    -14.9988 -14.9985 -14.9945 -14.9938 -13.2875 -13.2874 -13.2727 -13.2726
  0:    -12.5593 -12.5551 -12.5283 -12.5268 -12.5148 -12.5145 -12.4711 -12.4648
  0:    -12.4197 -12.4185 -12.4100 -12.4092 -11.9005 -11.8998 -11.8781 -11.8780
  0:    -11.5480 -11.5478 -11.3550 -11.3529 -11.1805 -11.1708 -11.1002 -11.0920
  0:    -11.0698 -11.0674 -10.9413 -10.9382  -9.4461  -9.4461  -9.3765  -9.3764
  0:     -7.8370  -7.8370  -7.7850  -7.7849  -6.5438  -6.5437  -6.5341  -6.5340
  0:     -6.2942  -6.2939  -6.2905  -6.2903  -4.9222  -4.9210  -4.8895  -4.8887
  0:     -4.7358  -4.7352  -4.6993  -4.6990  -3.5882  -3.5859  -3.5191  -3.5157
  0:     -2.9748  -2.9740  -2.7903  -2.7892  -2.7396  -2.7365  -2.7133  -2.7115
  0:     -2.1691  -2.1690  -2.1369  -2.1368  -1.6407  -1.6381  -1.4783  -1.4754
  0:     -1.4608  -1.4512  -1.3465  -1.3415  -0.6686  -0.6669  -0.3598  -0.3320
  0:     -0.2701  -0.2521  -0.1346  -0.1220   0.0555   0.0718   0.1441   0.1851
  0:      0.3360   0.3907   0.3978   0.4597   0.5462   0.5480   0.6082   0.7054
  0:      0.7159   0.7250   0.8032   0.8180   0.8531   0.9023   0.9089   0.9384
  0:      0.9689   1.0169   1.0785   1.1091   1.1401   1.2251   1.2411   1.2746
  0:      1.3389   1.3692   1.4620   1.5122   1.7131   1.7212   1.8147   1.8294
  0:      5.0549   5.0863   5.4664   5.5216   6.0132   6.0568   6.2861   6.3755
  0:      6.6585   6.7098   6.7787   6.8126   6.9256   6.9526   7.0539   7.0697
  0:      7.9026   7.9067   8.0888   8.0963   8.4319   8.4375   8.6593   8.6697
  0:      8.7105   8.7329   8.7994   8.8072   9.0992   9.1052   9.1272   9.1319
  0:      9.3369   9.3544   9.3808   9.4294   9.5943   9.6326   9.6806   9.6951
  0:      9.8621   9.8639   9.9295   9.9421  10.0479  10.0604  10.0972  10.1239
  0:     10.1317  10.1441  10.2974  10.3186  10.3200  10.3473  10.5712  10.5770
  0:     10.7838  10.7988  10.8304  10.8541  10.9728  10.9979  11.1168  11.1174
  0: 
  0:           k =-0.3505 0.2590 0.4285 ( 52580 PWs)   bands (ev):
  0: 
  0:    -17.1659 -17.1659 -17.1626 -17.1626 -15.0215 -15.0211 -15.0170 -15.0166
  0:    -14.9986 -14.9983 -14.9947 -14.9939 -13.2869 -13.2868 -13.2734 -13.2732
  0:    -12.5580 -12.5532 -12.5286 -12.5251 -12.5159 -12.5142 -12.4741 -12.4672
  0:    -12.4191 -12.4179 -12.4102 -12.4093 -11.9003 -11.8996 -11.8800 -11.8799
  0:    -11.5421 -11.5419 -11.3659 -11.3640 -11.1752 -11.1662 -11.0905 -11.0836
  0:    -11.0721 -11.0704 -10.9461 -10.9428  -9.4423  -9.4423  -9.3786  -9.3786
  0:     -7.8351  -7.8351  -7.7874  -7.7873  -6.5434  -6.5432  -6.5345  -6.5344
  0:     -6.2940  -6.2937  -6.2907  -6.2904  -4.9181  -4.9169  -4.8884  -4.8875
  0:     -4.7373  -4.7367  -4.7033  -4.7030  -3.5889  -3.5864  -3.5264  -3.5227
  0:     -2.9667  -2.9658  -2.7904  -2.7887  -2.7451  -2.7425  -2.7182  -2.7162
  0:     -2.1706  -2.1705  -2.1399  -2.1398  -1.6337  -1.6309  -1.4761  -1.4729
  0:     -1.4511  -1.4420  -1.3543  -1.3494  -0.6468  -0.6461  -0.3501  -0.3223
  0:     -0.2701  -0.2577  -0.1382  -0.1341   0.0447   0.0648   0.1324   0.1665
  0:      0.3355   0.3948   0.4020   0.4622   0.5437   0.5461   0.6094   0.7058
  0:      0.7078   0.7211   0.8031   0.8204   0.8655   0.9058   0.9086   0.9333
  0:      0.9714   1.0156   1.0819   1.1107   1.1333   1.2273   1.2334   1.2770
  0:      1.3483   1.3716   1.4588   1.5104   1.7175   1.7272   1.8165   1.8327
  0:      5.0677   5.0984   5.4497   5.5018   6.0234   6.0595   6.2652   6.3678
  0:      6.6476   6.7064   6.7609   6.8113   6.9285   6.9475   7.0487   7.0643
  0:      7.9008   7.9059   8.0829   8.0888   8.4451   8.4521   8.6605   8.6737
  0:      8.7040   8.7238   8.7996   8.8001   9.1026   9.1114   9.1399   9.1454
  0:      9.3441   9.3605   9.3913   9.4376   9.6019   9.6381   9.6665   9.6810
  0:      9.8454   9.8480   9.9246   9.9359  10.0766  10.0868  10.1145  10.1315
  0:     10.1401  10.1574  10.3023  10.3237  10.3252  10.3494  10.5610  10.5640
  0:     10.7816  10.7950  10.8408  10.8572  10.9906  11.0093  11.1280  11.1289
  0: 
  0:           k =-0.3505 0.2825 0.4285 ( 52590 PWs)   bands (ev):
  0: 
  0:    -17.1657 -17.1657 -17.1627 -17.1627 -15.0213 -15.0209 -15.0172 -15.0168
  0:    -14.9984 -14.9981 -14.9949 -14.9941 -13.2862 -13.2862 -13.2740 -13.2738
  0:    -12.5565 -12.5513 -12.5293 -12.5233 -12.5173 -12.5130 -12.4772 -12.4698
  0:    -12.4185 -12.4173 -12.4104 -12.4095 -11.9001 -11.8994 -11.8819 -11.8818
  0:    -11.5356 -11.5354 -11.3770 -11.3753 -11.1696 -11.1612 -11.0814 -11.0800
  0:    -11.0731 -11.0699 -10.9513 -10.9478  -9.4385  -9.4385  -9.3810  -9.3809
  0:     -7.8332  -7.8331  -7.7900  -7.7899  -6.5429  -6.5427  -6.5349  -6.5348
  0:     -6.2938  -6.2934  -6.2908  -6.2905  -4.9140  -4.9126  -4.8873  -4.8863
  0:     -4.7386  -4.7380  -4.7075  -4.7071  -3.5894  -3.5866  -3.5337  -3.5298
  0:     -2.9579  -2.9569  -2.7917  -2.7891  -2.7505  -2.7487  -2.7227  -2.7207
  0:     -2.1718  -2.1717  -2.1430  -2.1428  -1.6252  -1.6224  -1.4749  -1.4714
  0:     -1.4418  -1.4335  -1.3618  -1.3571  -0.6245  -0.6241  -0.3403  -0.3120
  0:     -0.2696  -0.2650  -0.1490  -0.1432   0.0351   0.0583   0.1199   0.1476
  0:      0.3371   0.3989   0.4058   0.4649   0.5421   0.5453   0.6101   0.6959
  0:      0.7016   0.7266   0.8038   0.8222   0.8778   0.9082   0.9089   0.9264
  0:      0.9757   1.0146   1.0858   1.1111   1.1273   1.2250   1.2286   1.2797
  0:      1.3585   1.3742   1.4548   1.5072   1.7228   1.7344   1.8173   1.8349
  0:      5.0823   5.1118   5.4318   5.4798   6.0363   6.0623   6.2446   6.3593
  0:      6.6365   6.7037   6.7430   6.8083   6.9323   6.9442   7.0426   7.0579
  0:      7.9010   7.9070   8.0746   8.0788   8.4613   8.4692   8.6586   8.6706
  0:      8.7042   8.7169   8.7928   8.8004   9.1063   9.1184   9.1523   9.1584
  0:      9.3519   9.3669   9.4013   9.4441   9.6097   9.6413   9.6577   9.6694
  0:      9.8254   9.8287   9.9164   9.9256  10.0973  10.1032  10.1341  10.1395
  0:     10.1497  10.1694  10.3145  10.3362  10.3389  10.3563  10.5470  10.5485
  0:     10.7835  10.7939  10.8499  10.8587  11.0100  11.0179  11.1419  11.1435
  0: 
  0:           k =-0.3505 0.3061 0.4285 ( 52578 PWs)   bands (ev):
  0: 
  0:    -17.1656 -17.1656 -17.1629 -17.1629 -15.0211 -15.0206 -15.0174 -15.0170
  0:    -14.9983 -14.9979 -14.9951 -14.9943 -13.2855 -13.2855 -13.2747 -13.2745
  0:    -12.5550 -12.5492 -12.5303 -12.5216 -12.5187 -12.5114 -12.4804 -12.4726
  0:    -12.4179 -12.4167 -12.4106 -12.4097 -11.8998 -11.8991 -11.8838 -11.8837
  0:    -11.5286 -11.5284 -11.3883 -11.3867 -11.1637 -11.1559 -11.0827 -11.0792
  0:    -11.0693 -11.0619 -10.9569 -10.9532  -9.4345  -9.4344  -9.3835  -9.3834
  0:     -7.8311  -7.8310  -7.7927  -7.7926  -6.5424  -6.5423  -6.5353  -6.5352
  0:     -6.2935  -6.2932  -6.2909  -6.2906  -4.9098  -4.9084  -4.8863  -4.8853
  0:     -4.7398  -4.7391  -4.7117  -4.7113  -3.5896  -3.5865  -3.5408  -3.5367
  0:     -2.9484  -2.9472  -2.7949  -2.7914  -2.7548  -2.7543  -2.7268  -2.7249
  0:     -2.1727  -2.1725  -2.1461  -2.1459  -1.6156  -1.6127  -1.4751  -1.4714
  0:     -1.4333  -1.4258  -1.3689  -1.3645  -0.6022  -0.6004  -0.3313  -0.3018
  0:     -0.2740  -0.2685  -0.1659  -0.1495   0.0271   0.0524   0.1068   0.1293
  0:      0.3406   0.4033   0.4090   0.4673   0.5412   0.5455   0.6096   0.6828
  0:      0.6986   0.7346   0.8046   0.8230   0.8893   0.9094   0.9099   0.9188
  0:      0.9819   1.0139   1.0893   1.1090   1.1237   1.2161   1.2298   1.2821
  0:      1.3691   1.3769   1.4501   1.5028   1.7289   1.7424   1.8170   1.8359
  0:      5.0987   5.1265   5.4127   5.4559   6.0517   6.0654   6.2243   6.3492
  0:      6.6261   6.7022   6.7254   6.8033   6.9370   6.9430   7.0359   7.0503
  0:      7.9032   7.9100   8.0642   8.0669   8.4800   8.4884   8.6551   8.6649
  0:      8.7065   8.7114   8.7850   8.8006   9.1111   9.1265   9.1636   9.1703
  0:      9.3603   9.3738   9.4103   9.4484   9.6169   9.6372   9.6597   9.6613
  0:      9.8038   9.8079   9.9048   9.9120  10.1060  10.1098  10.1413  10.1467
  0:     10.1740  10.1851  10.3275  10.3468  10.3627  10.3754  10.5308  10.5327
  0:     10.7896  10.7952  10.8570  10.8607  11.0252  11.0305  11.1561  11.1587
  0: 
  0:           k =-0.3505 0.3296 0.4285 ( 52582 PWs)   bands (ev):
  0: 
  0:    -17.1654 -17.1654 -17.1631 -17.1631 -15.0208 -15.0204 -15.0177 -15.0172
  0:    -14.9981 -14.9976 -14.9954 -14.9945 -13.2848 -13.2848 -13.2754 -13.2752
  0:    -12.5534 -12.5471 -12.5317 -12.5214 -12.5184 -12.5094 -12.4836 -12.4754
  0:    -12.4173 -12.4160 -12.4109 -12.4100 -11.8995 -11.8988 -11.8856 -11.8856
  0:    -11.5211 -11.5208 -11.3996 -11.3982 -11.1576 -11.1503 -11.0868 -11.0829
  0:    -11.0601 -11.0529 -10.9629 -10.9589  -9.4304  -9.4304  -9.3862  -9.3861
  0:     -7.8288  -7.8288  -7.7955  -7.7954  -6.5419  -6.5418  -6.5358  -6.5356
  0:     -6.2933  -6.2930  -6.2910  -6.2907  -4.9057  -4.9042  -4.8855  -4.8843
  0:     -4.7408  -4.7400  -4.7160  -4.7156  -3.5894  -3.5862  -3.5476  -3.5434
  0:     -2.9382  -2.9368  -2.8006  -2.7963  -2.7580  -2.7575  -2.7307  -2.7290
  0:     -2.1731  -2.1728  -2.1493  -2.1491  -1.6049  -1.6019  -1.4770  -1.4733
  0:     -1.4255  -1.4188  -1.3750  -1.3710  -0.5791  -0.5760  -0.3250  -0.2975
  0:     -0.2794  -0.2665  -0.1830  -0.1566   0.0206   0.0473   0.0933   0.1122
  0:      0.3457   0.4084   0.4110   0.4687   0.5411   0.5469   0.6072   0.6687
  0:      0.6995   0.7432   0.8052   0.8220   0.8987   0.9089   0.9118   0.9120
  0:      0.9897   1.0140   1.0915   1.1039   1.1235   1.2068   1.2317   1.2837
  0:      1.3800   1.3800   1.4447   1.4973   1.7359   1.7511   1.8155   1.8356
  0:      5.1167   5.1426   5.3924   5.4306   6.0690   6.0695   6.2048   6.3370
  0:      6.6172   6.7022   6.7085   6.7963   6.9422   6.9441   7.0286   7.0419
  0:      7.9075   7.9148   8.0523   8.0536   8.5005   8.5092   8.6509   8.6597
  0:      8.7070   8.7078   8.7763   8.7989   9.1173   9.1356   9.1732   9.1806
  0:      9.3690   9.3811   9.4178   9.4504   9.6216   9.6310   9.6585   9.6669
  0:      9.7823   9.7875   9.8902   9.8958  10.1060  10.1086  10.1467  10.1508
  0:     10.2018  10.2058  10.3369  10.3524  10.3944  10.4033  10.5148  10.5190
  0:     10.7988  10.7993  10.8614  10.8653  11.0327  11.0510  11.1663  11.1689
  0: 
  0:           k =-0.3505 0.3531 0.4285 ( 52588 PWs)   bands (ev):
  0: 
  0:    -17.1652 -17.1652 -17.1632 -17.1632 -15.0206 -15.0201 -15.0179 -15.0174
  0:    -14.9979 -14.9974 -14.9956 -14.9948 -13.2841 -13.2841 -13.2762 -13.2760
  0:    -12.5517 -12.5448 -12.5333 -12.5230 -12.5164 -12.5071 -12.4869 -12.4783
  0:    -12.4166 -12.4154 -12.4112 -12.4103 -11.8990 -11.8984 -11.8874 -11.8874
  0:    -11.5130 -11.5127 -11.4109 -11.4097 -11.1513 -11.1446 -11.0914 -11.0874
  0:    -11.0507 -11.0438 -10.9692 -10.9651  -9.4263  -9.4262  -9.3892  -9.3890
  0:     -7.8264  -7.8264  -7.7984  -7.7983  -6.5414  -6.5412  -6.5363  -6.5361
  0:     -6.2931  -6.2927  -6.2912  -6.2908  -4.9018  -4.9002  -4.8849  -4.8836
  0:     -4.7414  -4.7406  -4.7203  -4.7198  -3.5889  -3.5854  -3.5541  -3.5498
  0:     -2.9274  -2.9258  -2.8086  -2.8041  -2.7595  -2.7584  -2.7344  -2.7328
  0:     -2.1731  -2.1728  -2.1525  -2.1522  -1.5933  -1.5902  -1.4810  -1.4773
  0:     -1.4184  -1.4127  -1.3801  -1.3766  -0.5553  -0.5508  -0.3240  -0.3094
  0:     -0.2713  -0.2632  -0.1985  -0.1642   0.0158   0.0432   0.0797   0.0968
  0:      0.3522   0.4117   0.4141   0.4689   0.5420   0.5497   0.6025   0.6541
  0:      0.7044   0.7521   0.8053   0.8184   0.9040   0.9047   0.9096   0.9159
  0:      0.9990   1.0155   1.0916   1.0971   1.1255   1.1973   1.2349   1.2841
  0:      1.3834   1.3910   1.4388   1.4906   1.7434   1.7604   1.8129   1.8339
  0:      5.1364   5.1601   5.3709   5.4042   6.0734   6.0896   6.1861   6.3221
  0:      6.6108   6.6922   6.7038   6.7877   6.9472   6.9478   7.0209   7.0327
  0:      7.9136   7.9213   8.0393   8.0394   8.5221   8.5310   8.6467   8.6555
  0:      8.7040   8.7077   8.7664   8.7944   9.1251   9.1456   9.1808   9.1891
  0:      9.3780   9.3887   9.4236   9.4500   9.6231   9.6269   9.6610   9.6746
  0:      9.7629   9.7695   9.8732   9.8780  10.1029  10.1049  10.1507  10.1516
  0:     10.2282  10.2282  10.3428  10.3553  10.4283  10.4314  10.5018  10.5098
  0:     10.8042  10.8124  10.8633  10.8742  11.0411  11.0685  11.1657  11.1678
  0: 
  0:           k =-0.3505 0.3767 0.4285 ( 52600 PWs)   bands (ev):
  0: 
  0:    -17.1650 -17.1650 -17.1634 -17.1634 -15.0203 -15.0198 -15.0182 -15.0177
  0:    -14.9977 -14.9971 -14.9958 -14.9950 -13.2833 -13.2833 -13.2769 -13.2768
  0:    -12.5499 -12.5426 -12.5350 -12.5249 -12.5139 -12.5046 -12.4902 -12.4813
  0:    -12.4160 -12.4148 -12.4116 -12.4106 -11.8984 -11.8978 -11.8891 -11.8890
  0:    -11.5044 -11.5040 -11.4222 -11.4211 -11.1449 -11.1387 -11.0964 -11.0923
  0:    -11.0413 -11.0349 -10.9759 -10.9716  -9.4222  -9.4221  -9.3922  -9.3921
  0:     -7.8239  -7.8239  -7.8013  -7.8012  -6.5409  -6.5407  -6.5367  -6.5366
  0:     -6.2929  -6.2925  -6.2913  -6.2910  -4.8981  -4.8965  -4.8846  -4.8832
  0:     -4.7415  -4.7407  -4.7243  -4.7238  -3.5879  -3.5842  -3.5601  -3.5557
  0:     -2.9160  -2.9142  -2.8185  -2.8142  -2.7593  -2.7580  -2.7380  -2.7365
  0:     -2.1727  -2.1723  -2.1556  -2.1553  -1.5810  -1.5778  -1.4872  -1.4836
  0:     -1.4122  -1.4074  -1.3841  -1.3810  -0.5307  -0.5249  -0.3308  -0.3282
  0:     -0.2592  -0.2579  -0.2105  -0.1721   0.0128   0.0404   0.0663   0.0831
  0:      0.3597   0.4108   0.4205   0.4677   0.5440   0.5540   0.5962   0.6396
  0:      0.7127   0.7609   0.8047   0.8118   0.8996   0.9081   0.9082   0.9200
  0:      1.0096   1.0191   1.0892   1.0895   1.1288   1.1878   1.2397   1.2832
  0:      1.3873   1.4021   1.4326   1.4830   1.7515   1.7700   1.8091   1.8308
  0:      5.1575   5.1792   5.3484   5.3771   6.0787   6.1115   6.1686   6.3045
  0:      6.6074   6.6767   6.7072   6.7778   6.9520   6.9539   7.0130   7.0229
  0:      7.9215   7.9292   8.0245   8.0259   8.5437   8.5533   8.6422   8.6523
  0:      8.7032   8.7067   8.7552   8.7867   9.1344   9.1561   9.1857   9.1951
  0:      9.3871   9.3964   9.4272   9.4477   9.6233   9.6255   9.6650   9.6799
  0:      9.7486   9.7565   9.8546   9.8590  10.1003  10.1024  10.1490  10.1512
  0:     10.2498  10.2522  10.3448  10.3549  10.4547  10.4599  10.4942  10.5063
  0:     10.8111  10.8294  10.8631  10.8878  11.0498  11.0779  11.1494  11.1584
  0: 
  0:           k =-0.3505 0.4002 0.4285 ( 52596 PWs)   bands (ev):
  0: 
  0:    -17.1648 -17.1648 -17.1636 -17.1636 -15.0200 -15.0195 -15.0184 -15.0179
  0:    -14.9975 -14.9969 -14.9961 -14.9953 -13.2826 -13.2825 -13.2777 -13.2776
  0:    -12.5481 -12.5403 -12.5368 -12.5269 -12.5114 -12.5020 -12.4934 -12.4843
  0:    -12.4153 -12.4141 -12.4121 -12.4110 -11.8977 -11.8972 -11.8907 -11.8906
  0:    -11.4954 -11.4949 -11.4334 -11.4324 -11.1385 -11.1326 -11.1018 -11.0975
  0:    -11.0321 -11.0260 -10.9829 -10.9784  -9.4181  -9.4180  -9.3955  -9.3954
  0:     -7.8213  -7.8212  -7.8042  -7.8041  -6.5404  -6.5402  -6.5372  -6.5371
  0:     -6.2926  -6.2923  -6.2915  -6.2911  -4.8948  -4.8931  -4.8846  -4.8832
  0:     -4.7413  -4.7404  -4.7281  -4.7275  -3.5865  -3.5826  -3.5656  -3.5612
  0:     -2.9041  -2.9021  -2.8297  -2.8257  -2.7580  -2.7566  -2.7414  -2.7400
  0:     -2.1717  -2.1713  -2.1587  -2.1583  -1.5682  -1.5649  -1.4955  -1.4920
  0:     -1.4069  -1.4028  -1.3873  -1.3846  -0.5054  -0.4983  -0.3503  -0.3455
  0:     -0.2513  -0.2464  -0.2186  -0.1804   0.0119   0.0391   0.0535   0.0712
  0:      0.3679   0.4084   0.4274   0.4649   0.5474   0.5599   0.5887   0.6253
  0:      0.7235   0.7694   0.8023   0.8030   0.8973   0.9062   0.9108   0.9223
  0:      1.0211   1.0251   1.0811   1.0841   1.1332   1.1784   1.2457   1.2809
  0:      1.3916   1.4131   1.4262   1.4745   1.7597   1.7796   1.8042   1.8264
  0:      5.1798   5.1999   5.3250   5.3498   6.0850   6.1351   6.1523   6.2840
  0:      6.6074   6.6621   6.7122   6.7673   6.9583   6.9603   7.0050   7.0129
  0:      7.9309   7.9385   8.0096   8.0122   8.5643   8.5753   8.6369   8.6493
  0:      8.7053   8.7055   8.7430   8.7760   9.1447   9.1666   9.1875   9.1986
  0:      9.3960   9.4041   9.4286   9.4437   9.6247   9.6270   9.6653   9.6788
  0:      9.7437   9.7516   9.8350   9.8394  10.1001  10.1028  10.1435  10.1476
  0:     10.2696  10.2735  10.3431  10.3503  10.4706  10.4862  10.4931  10.5082
  0:     10.8192  10.8507  10.8615  10.9046  11.0578  11.0745  11.1262  11.1414
  0: 
  0:           k =-0.3505 0.4238 0.4285 ( 52596 PWs)   bands (ev):
  0: 
  0:    -17.1646 -17.1646 -17.1638 -17.1638 -15.0198 -15.0193 -15.0187 -15.0182
  0:    -14.9972 -14.9966 -14.9963 -14.9955 -13.2818 -13.2817 -13.2785 -13.2784
  0:    -12.5462 -12.5387 -12.5380 -12.5290 -12.5086 -12.4992 -12.4966 -12.4873
  0:    -12.4147 -12.4135 -12.4125 -12.4114 -11.8969 -11.8964 -11.8922 -11.8920
  0:    -11.4859 -11.4854 -11.4444 -11.4436 -11.1321 -11.1266 -11.1074 -11.1030
  0:    -11.0232 -11.0174 -10.9903 -10.9856  -9.4140  -9.4140  -9.3989  -9.3988
  0:     -7.8186  -7.8185  -7.8072  -7.8071  -6.5399  -6.5397  -6.5378  -6.5376
  0:     -6.2924  -6.2921  -6.2917  -6.2913  -4.8918  -4.8902  -4.8851  -4.8836
  0:     -4.7404  -4.7396  -4.7316  -4.7309  -3.5845  -3.5804  -3.5706  -3.5662
  0:     -2.8919  -2.8896  -2.8417  -2.8380  -2.7560  -2.7546  -2.7447  -2.7433
  0:     -2.1704  -2.1699  -2.1615  -2.1611  -1.5551  -1.5518  -1.5055  -1.5021
  0:     -1.4023  -1.3989  -1.3899  -1.3874  -0.4795  -0.4713  -0.3746  -0.3663
  0:     -0.2443  -0.2337  -0.2240  -0.1893   0.0132   0.0397   0.0417   0.0611
  0:      0.3762   0.4043   0.4346   0.4606   0.5522   0.5675   0.5808   0.6116
  0:      0.7359   0.7774   0.7905   0.8002   0.8969   0.9040   0.9134   0.9225
  0:      1.0331   1.0331   1.0721   1.0767   1.1387   1.1693   1.2525   1.2772
  0:      1.3964   1.4197   1.4241   1.4654   1.7681   1.7890   1.7983   1.8209
  0:      5.2031   5.2220   5.3009   5.3227   6.0927   6.1374   6.1600   6.2613
  0:      6.6107   6.6485   6.7187   6.7565   6.9658   6.9671   6.9970   7.0028
  0:      7.9417   7.9489   7.9948   7.9986   8.5829   8.5961   8.6303   8.6455
  0:      8.7048   8.7115   8.7305   8.7629   9.1555   9.1766   9.1862   9.1992
  0:      9.4045   9.4117   9.4275   9.4385   9.6282   9.6315   9.6602   9.6706
  0:      9.7493   9.7561   9.8152   9.8199  10.1029  10.1063  10.1355  10.1405
  0:     10.2876  10.2918  10.3381  10.3421  10.4804  10.4954  10.5049  10.5134
  0:     10.8281  10.8585  10.8755  10.9210  11.0623  11.0656  11.1006  11.1222
  0: 
  0:           k =-0.3505 0.4473 0.4285 ( 52592 PWs)   bands (ev):
  0: 
  0:    -17.1644 -17.1644 -17.1640 -17.1640 -15.0195 -15.0190 -15.0190 -15.0184
  0:    -14.9970 -14.9965 -14.9963 -14.9958 -13.2810 -13.2809 -13.2793 -13.2792
  0:    -12.5444 -12.5405 -12.5357 -12.5312 -12.5058 -12.4997 -12.4963 -12.4904
  0:    -12.4141 -12.4130 -12.4130 -12.4119 -11.8959 -11.8955 -11.8936 -11.8933
  0:    -11.4760 -11.4754 -11.4552 -11.4545 -11.1257 -11.1205 -11.1133 -11.1087
  0:    -11.0145 -11.0090 -10.9981 -10.9931  -9.4101  -9.4100  -9.4025  -9.4024
  0:     -7.8158  -7.8158  -7.8101  -7.8100  -6.5393  -6.5391  -6.5383  -6.5381
  0:     -6.2922  -6.2919  -6.2919  -6.2915  -4.8894  -4.8877  -4.8860  -4.8844
  0:     -4.7391  -4.7383  -4.7346  -4.7339  -3.5819  -3.5777  -3.5750  -3.5706
  0:     -2.8794  -2.8768  -2.8541  -2.8508  -2.7535  -2.7522  -2.7478  -2.7465
  0:     -2.1687  -2.1682  -2.1642  -2.1637  -1.5420  -1.5387  -1.5169  -1.5135
  0:     -1.3984  -1.3955  -1.3925  -1.3900  -0.4532  -0.4441  -0.4002  -0.3907
  0:     -0.2380  -0.2283  -0.2214  -0.1991   0.0169   0.0314   0.0421   0.0529
  0:      0.3845   0.3988   0.4419   0.4552   0.5582   0.5728   0.5765   0.5988
  0:      0.7494   0.7773   0.7847   0.7962   0.8978   0.9017   0.9161   0.9211
  0:      1.0425   1.0451   1.0625   1.0674   1.1452   1.1607   1.2595   1.2723
  0:      1.4017   1.4134   1.4349   1.4556   1.7763   1.7916   1.7981   1.8142
  0:      5.2272   5.2455   5.2764   5.2961   6.1016   6.1240   6.1856   6.2369
  0:      6.6168   6.6362   6.7267   6.7459   6.9741   6.9742   6.9892   6.9928
  0:      7.9536   7.9603   7.9804   7.9853   8.5987   8.6144   8.6221   8.6393
  0:      8.7062   8.7193   8.7213   8.7485   9.1658   9.1819   9.1854   9.1971
  0:      9.4124   9.4190   9.4243   9.4325   9.6342   9.6387   9.6515   9.6594
  0:      9.7617   9.7675   9.7958   9.8009  10.1087  10.1129  10.1262  10.1314
  0:     10.3038  10.3073  10.3303  10.3311  10.4876  10.4960  10.5157  10.5186
  0:     10.8375  10.8535  10.9013  10.9296  11.0530  11.0749  11.0760  11.1036
  0: 
  0:           k =-0.3505 0.4709 0.4285 ( 52600 PWs)   bands (ev):
  0: 
  0:    -17.1642 -17.1642 -17.1642 -17.1642 -15.0192 -15.0192 -15.0187 -15.0187
  0:    -14.9968 -14.9968 -14.9960 -14.9960 -13.2801 -13.2801 -13.2801 -13.2801
  0:    -12.5425 -12.5425 -12.5334 -12.5334 -12.5028 -12.5028 -12.4934 -12.4934
  0:    -12.4136 -12.4136 -12.4124 -12.4124 -11.8948 -11.8948 -11.8945 -11.8945
  0:    -11.4658 -11.4658 -11.4651 -11.4651 -11.1194 -11.1194 -11.1145 -11.1145
  0:    -11.0062 -11.0062 -11.0009 -11.0009  -9.4062  -9.4062  -9.4062  -9.4062
  0:     -7.8130  -7.8130  -7.8129  -7.8129  -6.5388  -6.5388  -6.5386  -6.5386
  0:     -6.2920  -6.2920  -6.2917  -6.2917  -4.8874  -4.8874  -4.8858  -4.8858
  0:     -4.7371  -4.7371  -4.7363  -4.7363  -3.5787  -3.5787  -3.5745  -3.5745
  0:     -2.8667  -2.8667  -2.8638  -2.8638  -2.7508  -2.7508  -2.7494  -2.7494
  0:     -2.1666  -2.1666  -2.1661  -2.1661  -1.5291  -1.5291  -1.5258  -1.5258
  0:     -1.3952  -1.3952  -1.3927  -1.3927  -0.4266  -0.4266  -0.4170  -0.4170
  0:     -0.2327  -0.2327  -0.2098  -0.2098   0.0231   0.0231   0.0465   0.0465
  0:      0.3921   0.3921   0.4488   0.4488   0.5651   0.5651   0.5870   0.5870
  0:      0.7634   0.7634   0.7910   0.7910   0.8995   0.8995   0.9188   0.9188
  0:      1.0525   1.0525   1.0567   1.0567   1.1526   1.1526   1.2662   1.2662
  0:      1.4074   1.4074   1.4454   1.4454   1.7842   1.7842   1.8065   1.8065
  0:      5.2517   5.2517   5.2703   5.2703   6.1121   6.1121   6.2114   6.2114
  0:      6.6255   6.6255   6.7359   6.7359   6.9816   6.9816   6.9832   6.9832
  0:      7.9666   7.9666   7.9725   7.9725   8.6117   8.6117   8.6291   8.6291
  0:      8.7109   8.7109   8.7341   8.7341   9.1749   9.1749   9.1923   9.1923
  0:      9.4191   9.4191   9.4260   9.4260   9.6423   9.6423   9.6482   9.6482
  0:      9.7777   9.7777   9.7831   9.7831  10.1169  10.1169  10.1216  10.1216
  0:     10.3182  10.3182  10.3201  10.3201  10.4932  10.4932  10.5199  10.5199
  0:     10.8463  10.8463  10.9222  10.9222  11.0577  11.0577  11.0874  11.0874
  0: 
  0:           k =-0.3330 0.4709 0.4071 ( 52594 PWs)   bands (ev):
  0: 
  0:    -17.1642 -17.1642 -17.1642 -17.1642 -15.0192 -15.0192 -15.0187 -15.0187
  0:    -14.9968 -14.9968 -14.9960 -14.9960 -13.2802 -13.2802 -13.2801 -13.2801
  0:    -12.5425 -12.5425 -12.5334 -12.5334 -12.5028 -12.5028 -12.4934 -12.4934
  0:    -12.4136 -12.4136 -12.4124 -12.4124 -11.8949 -11.8949 -11.8945 -11.8945
  0:    -11.4659 -11.4659 -11.4652 -11.4652 -11.1193 -11.1193 -11.1143 -11.1143
  0:    -11.0063 -11.0063 -11.0009 -11.0009  -9.4062  -9.4062  -9.4062  -9.4062
  0:     -7.8131  -7.8131  -7.8130  -7.8130  -6.5389  -6.5389  -6.5387  -6.5387
  0:     -6.2921  -6.2921  -6.2917  -6.2917  -4.8874  -4.8874  -4.8858  -4.8858
  0:     -4.7373  -4.7373  -4.7365  -4.7365  -3.5787  -3.5787  -3.5745  -3.5745
  0:     -2.8668  -2.8668  -2.8638  -2.8638  -2.7507  -2.7507  -2.7493  -2.7493
  0:     -2.1664  -2.1664  -2.1659  -2.1659  -1.5285  -1.5285  -1.5251  -1.5251
  0:     -1.3952  -1.3952  -1.3926  -1.3926  -0.4272  -0.4272  -0.4172  -0.4172
  0:     -0.2327  -0.2327  -0.2095  -0.2095   0.0220   0.0220   0.0461   0.0461
  0:      0.3912   0.3912   0.4510   0.4510   0.5588   0.5588   0.5948   0.5948
  0:      0.7629   0.7629   0.7928   0.7928   0.8983   0.8983   0.9199   0.9199
  0:      1.0480   1.0480   1.0613   1.0613   1.1523   1.1523   1.2657   1.2657
  0:      1.4065   1.4065   1.4449   1.4449   1.7840   1.7840   1.8063   1.8063
  0:      5.2487   5.2487   5.2726   5.2726   6.1112   6.1112   6.2115   6.2115
  0:      6.6256   6.6256   6.7352   6.7352   6.9780   6.9780   6.9841   6.9841
  0:      7.9635   7.9635   7.9716   7.9716   8.6071   8.6071   8.6351   8.6351
  0:      8.7072   8.7072   8.7409   8.7409   9.1745   9.1745   9.1929   9.1929
  0:      9.4183   9.4183   9.4262   9.4262   9.6415   9.6415   9.6515   9.6515
  0:      9.7781   9.7781   9.7862   9.7862  10.1153  10.1153  10.1217  10.1217
  0:     10.3139  10.3139  10.3226  10.3226  10.4933  10.4933  10.5195  10.5195
  0:     10.8489  10.8489  10.9235  10.9235  11.0558  11.0558  11.0857  11.0857
  0: 
  0:           k =-0.3154 0.4709 0.3857 ( 52590 PWs)   bands (ev):
  0: 
  0:    -17.1642 -17.1642 -17.1642 -17.1642 -15.0192 -15.0192 -15.0187 -15.0187
  0:    -14.9968 -14.9968 -14.9960 -14.9960 -13.2802 -13.2802 -13.2801 -13.2801
  0:    -12.5424 -12.5424 -12.5334 -12.5334 -12.5028 -12.5028 -12.4933 -12.4933
  0:    -12.4136 -12.4136 -12.4124 -12.4124 -11.8950 -11.8950 -11.8946 -11.8946
  0:    -11.4661 -11.4661 -11.4654 -11.4654 -11.1189 -11.1189 -11.1134 -11.1134
  0:    -11.0066 -11.0066 -11.0008 -11.0008  -9.4063  -9.4063  -9.4062  -9.4062
  0:     -7.8135  -7.8135  -7.8134  -7.8134  -6.5390  -6.5390  -6.5388  -6.5388
  0:     -6.2921  -6.2921  -6.2918  -6.2918  -4.8874  -4.8874  -4.8857  -4.8857
  0:     -4.7378  -4.7378  -4.7370  -4.7370  -3.5787  -3.5787  -3.5745  -3.5745
  0:     -2.8671  -2.8671  -2.8640  -2.8640  -2.7504  -2.7504  -2.7487  -2.7487
  0:     -2.1660  -2.1660  -2.1654  -2.1654  -1.5265  -1.5265  -1.5229  -1.5229
  0:     -1.3953  -1.3953  -1.3925  -1.3925  -0.4288  -0.4288  -0.4180  -0.4180
  0:     -0.2327  -0.2327  -0.2088  -0.2088   0.0189   0.0189   0.0447   0.0447
  0:      0.3893   0.3893   0.4564   0.4564   0.5494   0.5494   0.6089   0.6089
  0:      0.7618   0.7618   0.7975   0.7975   0.8952   0.8952   0.9227   0.9227
  0:      1.0419   1.0419   1.0675   1.0675   1.1516   1.1516   1.2642   1.2642
  0:      1.4040   1.4040   1.4434   1.4434   1.7834   1.7834   1.8055   1.8055
  0:      5.2422   5.2422   5.2771   5.2771   6.1086   6.1086   6.2117   6.2117
  0:      6.6257   6.6257   6.7330   6.7330   6.9710   6.9710   6.9830   6.9830
  0:      7.9558   7.9558   7.9679   7.9679   8.6007   8.6007   8.6433   8.6433
  0:      8.7050   8.7050   8.7547   8.7547   9.1736   9.1736   9.1944   9.1944
  0:      9.4164   9.4164   9.4268   9.4268   9.6418   9.6418   9.6583   9.6583
  0:      9.7807   9.7807   9.7936   9.7936  10.1115  10.1115  10.1216  10.1216
  0:     10.3067  10.3067  10.3239  10.3239  10.4942  10.4942  10.5190  10.5190
  0:     10.8550  10.8550  10.9245  10.9245  11.0523  11.0523  11.0815  11.0815
  0: 
  0:           k =-0.2979 0.4709 0.3643 ( 52582 PWs)   bands (ev):
  0: 
  0:    -17.1642 -17.1642 -17.1642 -17.1642 -15.0192 -15.0192 -15.0187 -15.0187
  0:    -14.9968 -14.9968 -14.9960 -14.9960 -13.2802 -13.2802 -13.2800 -13.2800
  0:    -12.5424 -12.5424 -12.5333 -12.5333 -12.5028 -12.5028 -12.4933 -12.4933
  0:    -12.4136 -12.4136 -12.4124 -12.4124 -11.8951 -11.8951 -11.8947 -11.8947
  0:    -11.4665 -11.4665 -11.4658 -11.4658 -11.1183 -11.1183 -11.1121 -11.1121
  0:    -11.0070 -11.0070 -11.0006 -11.0006  -9.4063  -9.4063  -9.4062  -9.4062
  0:     -7.8141  -7.8141  -7.8140  -7.8140  -6.5394  -6.5394  -6.5391  -6.5391
  0:     -6.2922  -6.2922  -6.2919  -6.2919  -4.8873  -4.8873  -4.8856  -4.8856
  0:     -4.7387  -4.7387  -4.7377  -4.7377  -3.5788  -3.5788  -3.5744  -3.5744
  0:     -2.8675  -2.8675  -2.8643  -2.8643  -2.7499  -2.7499  -2.7479  -2.7479
  0:     -2.1652  -2.1652  -2.1645  -2.1645  -1.5232  -1.5232  -1.5193  -1.5193
  0:     -1.3953  -1.3953  -1.3924  -1.3924  -0.4312  -0.4312  -0.4195  -0.4195
  0:     -0.2327  -0.2327  -0.2077  -0.2077   0.0143   0.0143   0.0420   0.0420
  0:      0.3878   0.3878   0.4632   0.4632   0.5425   0.5425   0.6241   0.6241
  0:      0.7611   0.7611   0.8042   0.8042   0.8912   0.8912   0.9263   0.9263
  0:      1.0359   1.0359   1.0737   1.0737   1.1507   1.1507   1.2618   1.2618
  0:      1.3999   1.3999   1.4410   1.4410   1.7824   1.7824   1.8044   1.8044
  0:      5.2343   5.2343   5.2816   5.2816   6.1046   6.1046   6.2119   6.2119
  0:      6.6259   6.6259   6.7295   6.7295   6.9614   6.9614   6.9798   6.9798
  0:      7.9449   7.9449   7.9607   7.9607   8.5957   8.5957   8.6452   8.6452
  0:      8.7127   8.7127   8.7708   8.7708   9.1729   9.1729   9.1963   9.1963
  0:      9.4149   9.4149   9.4285   9.4285   9.6436   9.6436   9.6660   9.6660
  0:      9.7861   9.7861   9.8034   9.8034  10.1069  10.1069  10.1213  10.1213
  0:     10.2975  10.2975  10.3230  10.3230  10.4968  10.4968  10.5202  10.5202
  0:     10.8600  10.8600  10.9182  10.9182  11.0530  11.0530  11.0778  11.0778
  0: 
  0:           k =-0.2804 0.4709 0.3428 ( 52600 PWs)   bands (ev):
  0: 
  0:    -17.1642 -17.1642 -17.1642 -17.1642 -15.0192 -15.0192 -15.0187 -15.0187
  0:    -14.9968 -14.9968 -14.9960 -14.9960 -13.2802 -13.2802 -13.2800 -13.2800
  0:    -12.5424 -12.5424 -12.5332 -12.5332 -12.5029 -12.5029 -12.4933 -12.4933
  0:    -12.4136 -12.4136 -12.4124 -12.4124 -11.8953 -11.8953 -11.8948 -11.8948
  0:    -11.4671 -11.4671 -11.4663 -11.4663 -11.1173 -11.1173 -11.1103 -11.1103
  0:    -11.0076 -11.0076 -11.0004 -11.0004  -9.4063  -9.4063  -9.4062  -9.4062
  0:     -7.8149  -7.8149  -7.8148  -7.8148  -6.5398  -6.5398  -6.5396  -6.5396
  0:     -6.2924  -6.2924  -6.2920  -6.2920  -4.8873  -4.8873  -4.8855  -4.8855
  0:     -4.7398  -4.7398  -4.7388  -4.7388  -3.5788  -3.5788  -3.5744  -3.5744
  0:     -2.8680  -2.8680  -2.8647  -2.8647  -2.7492  -2.7492  -2.7468  -2.7468
  0:     -2.1642  -2.1642  -2.1634  -2.1634  -1.5187  -1.5187  -1.5145  -1.5145
  0:     -1.3953  -1.3953  -1.3921  -1.3921  -0.4343  -0.4343  -0.4215  -0.4215
  0:     -0.2328  -0.2328  -0.2065  -0.2065   0.0085   0.0085   0.0378   0.0378
  0:      0.3876   0.3876   0.4694   0.4694   0.5396   0.5396   0.6389   0.6389
  0:      0.7611   0.7611   0.8120   0.8120   0.8867   0.8867   0.9303   0.9303
  0:      1.0298   1.0298   1.0794   1.0794   1.1501   1.1501   1.2588   1.2588
  0:      1.3943   1.3943   1.4379   1.4379   1.7810   1.7810   1.8028   1.8028
  0:      5.2258   5.2258   5.2854   5.2854   6.0996   6.0996   6.2116   6.2116
  0:      6.6257   6.6257   6.7245   6.7245   6.9494   6.9494   6.9748   6.9748
  0:      7.9321   7.9321   7.9505   7.9505   8.5921   8.5921   8.6407   8.6407
  0:      8.7293   8.7293   8.7881   8.7881   9.1731   9.1731   9.1980   9.1980
  0:      9.4150   9.4150   9.4318   9.4318   9.6460   9.6460   9.6735   9.6735
  0:      9.7936   9.7936   9.8143   9.8143  10.1026  10.1026  10.1215  10.1215
  0:     10.2868  10.2868  10.3197  10.3197  10.5018  10.5018  10.5248  10.5248
  0:     10.8579  10.8579  10.9001  10.9001  11.0619  11.0619  11.0800  11.0800
  0: 
  0:           k =-0.2629 0.4709 0.3214 ( 52606 PWs)   bands (ev):
  0: 
  0:    -17.1642 -17.1642 -17.1642 -17.1642 -15.0192 -15.0192 -15.0187 -15.0187
  0:    -14.9968 -14.9968 -14.9960 -14.9960 -13.2802 -13.2802 -13.2801 -13.2801
  0:    -12.5424 -12.5424 -12.5331 -12.5331 -12.5029 -12.5029 -12.4933 -12.4933
  0:    -12.4135 -12.4135 -12.4124 -12.4124 -11.8955 -11.8955 -11.8950 -11.8950
  0:    -11.4677 -11.4677 -11.4670 -11.4670 -11.1160 -11.1160 -11.1082 -11.1082
  0:    -11.0083 -11.0083 -11.0003 -11.0003  -9.4063  -9.4063  -9.4062  -9.4062
  0:     -7.8159  -7.8159  -7.8158  -7.8158  -6.5403  -6.5403  -6.5401  -6.5401
  0:     -6.2925  -6.2925  -6.2922  -6.2922  -4.8873  -4.8873  -4.8855  -4.8855
  0:     -4.7412  -4.7412  -4.7400  -4.7400  -3.5788  -3.5788  -3.5744  -3.5744
  0:     -2.8686  -2.8686  -2.8652  -2.8652  -2.7484  -2.7484  -2.7456  -2.7456
  0:     -2.1630  -2.1630  -2.1621  -2.1621  -1.5132  -1.5132  -1.5085  -1.5085
  0:     -1.3951  -1.3951  -1.3916  -1.3916  -0.4379  -0.4379  -0.4241  -0.4241
  0:     -0.2329  -0.2329  -0.2051  -0.2051   0.0019   0.0019   0.0321   0.0321
  0:      0.3893   0.3893   0.4741   0.4741   0.5414   0.5414   0.6527   0.6527
  0:      0.7622   0.7622   0.8201   0.8201   0.8821   0.8821   0.9343   0.9343
  0:      1.0238   1.0238   1.0843   1.0843   1.1505   1.1505   1.2553   1.2553
  0:      1.3874   1.3874   1.4342   1.4342   1.7792   1.7792   1.8009   1.8009
  0:      5.2172   5.2172   5.2880   5.2880   6.0939   6.0939   6.2107   6.2107
  0:      6.6250   6.6250   6.7181   6.7181   6.9354   6.9354   6.9687   6.9687
  0:      7.9182   7.9182   7.9379   7.9379   8.5894   8.5894   8.6340   8.6340
  0:      8.7494   8.7494   8.8059   8.8059   9.1749   9.1749   9.1994   9.1994
  0:      9.4181   9.4181   9.4370   9.4370   9.6483   9.6483   9.6799   9.6799
  0:      9.8021   9.8021   9.8250   9.8250  10.0997  10.0997  10.1228  10.1228
  0:     10.2758  10.2758  10.3147  10.3147  10.5095  10.5095  10.5329  10.5329
  0:     10.8447  10.8447  10.8741  10.8741  11.0766  11.0766  11.0912  11.0912
  0: 
  0:           k =-0.2453 0.4709 0.3000 ( 52598 PWs)   bands (ev):
  0: 
  0:    -17.1642 -17.1642 -17.1642 -17.1642 -15.0192 -15.0192 -15.0187 -15.0187
  0:    -14.9968 -14.9968 -14.9960 -14.9960 -13.2803 -13.2803 -13.2801 -13.2801
  0:    -12.5424 -12.5424 -12.5329 -12.5329 -12.5029 -12.5029 -12.4932 -12.4932
  0:    -12.4135 -12.4135 -12.4125 -12.4125 -11.8958 -11.8958 -11.8952 -11.8952
  0:    -11.4685 -11.4685 -11.4678 -11.4678 -11.1144 -11.1144 -11.1057 -11.1057
  0:    -11.0091 -11.0091 -11.0003 -11.0003  -9.4063  -9.4063  -9.4062  -9.4062
  0:     -7.8171  -7.8171  -7.8170  -7.8170  -6.5409  -6.5409  -6.5406  -6.5406
  0:     -6.2928  -6.2928  -6.2924  -6.2924  -4.8873  -4.8873  -4.8854  -4.8854
  0:     -4.7427  -4.7427  -4.7414  -4.7414  -3.5789  -3.5789  -3.5744  -3.5744
  0:     -2.8693  -2.8693  -2.8657  -2.8657  -2.7473  -2.7473  -2.7442  -2.7442
  0:     -2.1615  -2.1615  -2.1605  -2.1605  -1.5069  -1.5069  -1.5016  -1.5016
  0:     -1.3946  -1.3946  -1.3907  -1.3907  -0.4416  -0.4416  -0.4272  -0.4272
  0:     -0.2331  -0.2331  -0.2039  -0.2039  -0.0052  -0.0052   0.0250   0.0250
  0:      0.3930   0.3930   0.4775   0.4775   0.5469   0.5469   0.6652   0.6652
  0:      0.7643   0.7643   0.8275   0.8275   0.8779   0.8779   0.9382   0.9382
  0:      1.0179   1.0179   1.0877   1.0877   1.1525   1.1525   1.2519   1.2519
  0:      1.3793   1.3793   1.4303   1.4303   1.7770   1.7770   1.7987   1.7987
  0:      5.2085   5.2085   5.2893   5.2893   6.0879   6.0879   6.2089   6.2089
  0:      6.6233   6.6233   6.7104   6.7104   6.9199   6.9199   6.9620   6.9620
  0:      7.9039   7.9039   7.9236   7.9236   8.5873   8.5873   8.6274   8.6274
  0:      8.7694   8.7694   8.8235   8.8235   9.1788   9.1788   9.2004   9.2004
  0:      9.4246   9.4246   9.4442   9.4442   9.6498   9.6498   9.6845   9.6845
  0:      9.8106   9.8106   9.8345   9.8345  10.0990  10.0990  10.1254  10.1254
  0:     10.2661  10.2661  10.3093  10.3093  10.5191  10.5191  10.5433  10.5433
  0:     10.8219  10.8219  10.8471  10.8471  11.0946  11.0946  11.1075  11.1075
  0: 
  0:           k =-0.2278 0.4709 0.2786 ( 52604 PWs)   bands (ev):
  0: 
  0:    -17.1643 -17.1643 -17.1643 -17.1643 -15.0192 -15.0192 -15.0187 -15.0187
  0:    -14.9968 -14.9968 -14.9960 -14.9960 -13.2803 -13.2803 -13.2801 -13.2801
  0:    -12.5424 -12.5424 -12.5328 -12.5328 -12.5030 -12.5030 -12.4932 -12.4932
  0:    -12.4135 -12.4135 -12.4125 -12.4125 -11.8961 -11.8961 -11.8955 -11.8955
  0:    -11.4694 -11.4694 -11.4687 -11.4687 -11.1124 -11.1124 -11.1029 -11.1029
  0:    -11.0100 -11.0100 -11.0004 -11.0004  -9.4063  -9.4063  -9.4062  -9.4062
  0:     -7.8185  -7.8185  -7.8184  -7.8184  -6.5415  -6.5415  -6.5413  -6.5413
  0:     -6.2930  -6.2930  -6.2927  -6.2927  -4.8874  -4.8874  -4.8855  -4.8855
  0:     -4.7443  -4.7443  -4.7430  -4.7430  -3.5790  -3.5790  -3.5745  -3.5745
  0:     -2.8699  -2.8699  -2.8662  -2.8662  -2.7462  -2.7462  -2.7428  -2.7428
  0:     -2.1600  -2.1600  -2.1588  -2.1588  -1.5001  -1.5001  -1.4941  -1.4941
  0:     -1.3938  -1.3938  -1.3893  -1.3893  -0.4455  -0.4455  -0.4306  -0.4306
  0:     -0.2334  -0.2334  -0.2029  -0.2029  -0.0125  -0.0125   0.0168   0.0168
  0:      0.3985   0.3985   0.4806   0.4806   0.5546   0.5546   0.6762   0.6762
  0:      0.7671   0.7671   0.8335   0.8335   0.8743   0.8743   0.9417   0.9417
  0:      1.0123   1.0123   1.0892   1.0892   1.1562   1.1562   1.2490   1.2490
  0:      1.3704   1.3704   1.4263   1.4263   1.7744   1.7744   1.7964   1.7964
  0:      5.2001   5.2001   5.2893   5.2893   6.0820   6.0820   6.2062   6.2062
  0:      6.6204   6.6204   6.7015   6.7015   6.9036   6.9036   6.9549   6.9549
  0:      7.8899   7.8899   7.9083   7.9083   8.5855   8.5855   8.6220   8.6220
  0:      8.7875   8.7875   8.8400   8.8400   9.1848   9.1848   9.2011   9.2011
  0:      9.4347   9.4347   9.4531   9.4531   9.6504   9.6504   9.6867   9.6867
  0:      9.8188   9.8188   9.8423   9.8423  10.1004  10.1004  10.1286  10.1286
  0:     10.2595  10.2595  10.3058  10.3058  10.5284  10.5284  10.5534  10.5534
  0:     10.7962  10.7962  10.8239  10.8239  11.1131  11.1131  11.1245  11.1245
  0: 
  0:           k =-0.2103 0.4709 0.2571 ( 52624 PWs)   bands (ev):
  0: 
  0:    -17.1643 -17.1643 -17.1643 -17.1643 -15.0192 -15.0192 -15.0187 -15.0187
  0:    -14.9968 -14.9968 -14.9960 -14.9960 -13.2803 -13.2803 -13.2801 -13.2801
  0:    -12.5424 -12.5424 -12.5326 -12.5326 -12.5030 -12.5030 -12.4931 -12.4931
  0:    -12.4135 -12.4135 -12.4125 -12.4125 -11.8964 -11.8964 -11.8958 -11.8958
  0:    -11.4704 -11.4704 -11.4696 -11.4696 -11.1102 -11.1102 -11.0999 -11.0999
  0:    -11.0110 -11.0110 -11.0006 -11.0006  -9.4064  -9.4064  -9.4063  -9.4063
  0:     -7.8200  -7.8200  -7.8198  -7.8198  -6.5422  -6.5422  -6.5419  -6.5419
  0:     -6.2933  -6.2933  -6.2930  -6.2930  -4.8876  -4.8876  -4.8856  -4.8856
  0:     -4.7460  -4.7460  -4.7446  -4.7446  -3.5791  -3.5791  -3.5745  -3.5745
  0:     -2.8705  -2.8705  -2.8667  -2.8667  -2.7449  -2.7449  -2.7414  -2.7414
  0:     -2.1583  -2.1583  -2.1571  -2.1571  -1.4929  -1.4929  -1.4862  -1.4862
  0:     -1.3924  -1.3924  -1.3873  -1.3873  -0.4492  -0.4492  -0.4343  -0.4343
  0:     -0.2339  -0.2339  -0.2022  -0.2022  -0.0200  -0.0200   0.0078   0.0078
  0:      0.4056   0.4056   0.4843   0.4843   0.5629   0.5629   0.6859   0.6859
  0:      0.7706   0.7706   0.8371   0.8371   0.8720   0.8720   0.9444   0.9444
  0:      1.0074   1.0074   1.0891   1.0891   1.1610   1.1610   1.2470   1.2470
  0:      1.3612   1.3612   1.4226   1.4226   1.7714   1.7714   1.7940   1.7940
  0:      5.1919   5.1919   5.2878   5.2878   6.0762   6.0762   6.2025   6.2025
  0:      6.6161   6.6161   6.6914   6.6914   6.8874   6.8874   6.9478   6.9478
  0:      7.8767   7.8767   7.8929   7.8929   8.5841   8.5841   8.6180   8.6180
  0:      8.8030   8.8030   8.8546   8.8546   9.1914   9.1914   9.2024   9.2024
  0:      9.4473   9.4473   9.4637   9.4637   9.6502   9.6502   9.6865   9.6865
  0:      9.8274   9.8274   9.8492   9.8492  10.1025  10.1025  10.1312  10.1312
  0:     10.2577  10.2577  10.3061  10.3061  10.5339  10.5339  10.5602  10.5602
  0:     10.7752  10.7752  10.8075  10.8075  11.1291  11.1291  11.1407  11.1407
  0: 
  0:           k =-0.1928 0.4709 0.2357 ( 52638 PWs)   bands (ev):
  0: 
  0:    -17.1643 -17.1643 -17.1643 -17.1643 -15.0192 -15.0192 -15.0187 -15.0187
  0:    -14.9968 -14.9968 -14.9960 -14.9960 -13.2803 -13.2803 -13.2801 -13.2801
  0:    -12.5423 -12.5423 -12.5324 -12.5324 -12.5030 -12.5030 -12.4931 -12.4931
  0:    -12.4135 -12.4135 -12.4125 -12.4125 -11.8967 -11.8967 -11.8961 -11.8961
  0:    -11.4714 -11.4714 -11.4706 -11.4706 -11.1077 -11.1077 -11.0968 -11.0968
  0:    -11.0120 -11.0120 -11.0009 -11.0009  -9.4064  -9.4064  -9.4063  -9.4063
  0:     -7.8215  -7.8215  -7.8214  -7.8214  -6.5429  -6.5429  -6.5426  -6.5426
  0:     -6.2936  -6.2936  -6.2933  -6.2933  -4.8878  -4.8878  -4.8858  -4.8858
  0:     -4.7476  -4.7476  -4.7462  -4.7462  -3.5792  -3.5792  -3.5746  -3.5746
  0:     -2.8710  -2.8710  -2.8672  -2.8672  -2.7437  -2.7437  -2.7400  -2.7400
  0:     -2.1566  -2.1566  -2.1553  -2.1553  -1.4858  -1.4858  -1.4782  -1.4782
  0:     -1.3905  -1.3905  -1.3845  -1.3845  -0.4528  -0.4528  -0.4380  -0.4380
  0:     -0.2345  -0.2345  -0.2019  -0.2019  -0.0274  -0.0274  -0.0017  -0.0017
  0:      0.4140   0.4140   0.4891   0.4891   0.5708   0.5708   0.6941   0.6941
  0:      0.7742   0.7742   0.8384   0.8384   0.8710   0.8710   0.9457   0.9457
  0:      1.0039   1.0039   1.0877   1.0877   1.1657   1.1657   1.2465   1.2465
  0:      1.3526   1.3526   1.4193   1.4193   1.7682   1.7682   1.7916   1.7916
  0:      5.1842   5.1842   5.2850   5.2850   6.0709   6.0709   6.1979   6.1979
  0:      6.6103   6.6103   6.6802   6.6802   6.8722   6.8722   6.9408   6.9408
  0:      7.8644   7.8644   7.8778   7.8778   8.5832   8.5832   8.6154   8.6154
  0:      8.8161   8.8161   8.8667   8.8667   9.1952   9.1952   9.2065   9.2065
  0:      9.4608   9.4608   9.4759   9.4759   9.6491   9.6491   9.6840   9.6840
  0:      9.8371   9.8371   9.8563   9.8563  10.1040  10.1040  10.1322  10.1322
  0:     10.2618  10.2618  10.3112  10.3112  10.5331  10.5331  10.5606  10.5606
  0:     10.7635  10.7635  10.8003  10.8003  11.1418  11.1418  11.1560  11.1560
  0: 
  0:           k =-0.1752 0.4709 0.2143 ( 52626 PWs)   bands (ev):
  0: 
  0:    -17.1643 -17.1643 -17.1643 -17.1643 -15.0192 -15.0192 -15.0187 -15.0187
  0:    -14.9968 -14.9968 -14.9960 -14.9960 -13.2804 -13.2804 -13.2801 -13.2801
  0:    -12.5423 -12.5423 -12.5322 -12.5322 -12.5031 -12.5031 -12.4930 -12.4930
  0:    -12.4135 -12.4135 -12.4125 -12.4125 -11.8971 -11.8971 -11.8964 -11.8964
  0:    -11.4724 -11.4724 -11.4717 -11.4717 -11.1050 -11.1050 -11.0935 -11.0935
  0:    -11.0131 -11.0131 -11.0014 -11.0014  -9.4064  -9.4064  -9.4063  -9.4063
  0:     -7.8231  -7.8231  -7.8230  -7.8230  -6.5436  -6.5436  -6.5433  -6.5433
  0:     -6.2939  -6.2939  -6.2936  -6.2936  -4.8882  -4.8882  -4.8862  -4.8862
  0:     -4.7492  -4.7492  -4.7478  -4.7478  -3.5794  -3.5794  -3.5747  -3.5747
  0:     -2.8714  -2.8714  -2.8676  -2.8676  -2.7424  -2.7424  -2.7388  -2.7388
  0:     -2.1549  -2.1549  -2.1536  -2.1536  -1.4789  -1.4789  -1.4707  -1.4707
  0:     -1.3877  -1.3877  -1.3808  -1.3808  -0.4561  -0.4561  -0.4418  -0.4418
  0:     -0.2352  -0.2352  -0.2018  -0.2018  -0.0348  -0.0348  -0.0113  -0.0113
  0:      0.4235   0.4235   0.4951   0.4951   0.5776   0.5776   0.7008   0.7008
  0:      0.7779   0.7779   0.8381   0.8381   0.8708   0.8708   0.9448   0.9448
  0:      1.0023   1.0023   1.0854   1.0854   1.1691   1.1691   1.2472   1.2472
  0:      1.3455   1.3455   1.4168   1.4168   1.7647   1.7647   1.7893   1.7893
  0:      5.1770   5.1770   5.2807   5.2807   6.0661   6.0661   6.1926   6.1926
  0:      6.6032   6.6032   6.6679   6.6679   6.8590   6.8590   6.9337   6.9337
  0:      7.8531   7.8531   7.8636   7.8636   8.5830   8.5830   8.6140   8.6140
  0:      8.8272   8.8272   8.8765   8.8765   9.1958   9.1958   9.2126   9.2126
  0:      9.4730   9.4730   9.4894   9.4894   9.6471   9.6471   9.6802   9.6802
  0:      9.8490   9.8490   9.8652   9.8652  10.1036  10.1036  10.1315  10.1315
  0:     10.2713  10.2713  10.3214  10.3214  10.5259  10.5259  10.5538  10.5538
  0:     10.7618  10.7618  10.8020  10.8020  11.1521  11.1521  11.1696  11.1696
  0: 
  0:           k =-0.1577 0.4709 0.1928 ( 52622 PWs)   bands (ev):
  0: 
  0:    -17.1643 -17.1643 -17.1643 -17.1643 -15.0192 -15.0192 -15.0187 -15.0187
  0:    -14.9968 -14.9968 -14.9960 -14.9960 -13.2804 -13.2804 -13.2801 -13.2801
  0:    -12.5423 -12.5423 -12.5321 -12.5321 -12.5031 -12.5031 -12.4930 -12.4930
  0:    -12.4135 -12.4135 -12.4125 -12.4125 -11.8974 -11.8974 -11.8967 -11.8967
  0:    -11.4734 -11.4734 -11.4727 -11.4727 -11.1022 -11.1022 -11.0901 -11.0901
  0:    -11.0143 -11.0143 -11.0020 -11.0020  -9.4064  -9.4064  -9.4063  -9.4063
  0:     -7.8247  -7.8247  -7.8246  -7.8246  -6.5442  -6.5442  -6.5440  -6.5440
  0:     -6.2942  -6.2942  -6.2940  -6.2940  -4.8886  -4.8886  -4.8867  -4.8867
  0:     -4.7507  -4.7507  -4.7492  -4.7492  -3.5796  -3.5796  -3.5748  -3.5748
  0:     -2.8716  -2.8716  -2.8680  -2.8680  -2.7412  -2.7412  -2.7376  -2.7376
  0:     -2.1532  -2.1532  -2.1520  -2.1520  -1.4727  -1.4727  -1.4638  -1.4638
  0:     -1.3841  -1.3841  -1.3762  -1.3762  -0.4591  -0.4591  -0.4454  -0.4454
  0:     -0.2359  -0.2359  -0.2020  -0.2020  -0.0421  -0.0421  -0.0206  -0.0206
  0:      0.4337   0.4337   0.5022   0.5022   0.5827   0.5827   0.7053   0.7053
  0:      0.7816   0.7816   0.8378   0.8378   0.8707   0.8707   0.9419   0.9419
  0:      1.0027   1.0027   1.0822   1.0822   1.1706   1.1706   1.2480   1.2480
  0:      1.3415   1.3415   1.4150   1.4150   1.7612   1.7612   1.7872   1.7872
  0:      5.1704   5.1704   5.2753   5.2753   6.0620   6.0620   6.1866   6.1866
  0:      6.5951   6.5951   6.6547   6.6547   6.8483   6.8483   6.9266   6.9266
  0:      7.8427   7.8427   7.8507   7.8507   8.5835   8.5835   8.6136   8.6136
  0:      8.8369   8.8369   8.8843   8.8843   9.1952   9.1952   9.2175   9.2175
  0:      9.4822   9.4822   9.5031   9.5031   9.6444   9.6444   9.6764   9.6764
  0:      9.8632   9.8632   9.8774   9.8774  10.1009  10.1009  10.1297  10.1297
  0:     10.2847  10.2847  10.3354  10.3354  10.5155  10.5155  10.5418  10.5418
  0:     10.7670  10.7670  10.8094  10.8094  11.1600  11.1600  11.1800  11.1800
  0: 
  0:           k =-0.1402 0.4709 0.1714 ( 52594 PWs)   bands (ev):
  0: 
  0:    -17.1644 -17.1644 -17.1644 -17.1644 -15.0192 -15.0192 -15.0187 -15.0187
  0:    -14.9968 -14.9968 -14.9960 -14.9960 -13.2804 -13.2804 -13.2802 -13.2802
  0:    -12.5422 -12.5422 -12.5319 -12.5319 -12.5032 -12.5032 -12.4929 -12.4929
  0:    -12.4135 -12.4135 -12.4125 -12.4125 -11.8977 -11.8977 -11.8970 -11.8970
  0:    -11.4744 -11.4744 -11.4738 -11.4738 -11.0993 -11.0993 -11.0868 -11.0868
  0:    -11.0155 -11.0155 -11.0028 -11.0028  -9.4064  -9.4064  -9.4064  -9.4064
  0:     -7.8262  -7.8262  -7.8261  -7.8261  -6.5449  -6.5449  -6.5447  -6.5447
  0:     -6.2946  -6.2946  -6.2943  -6.2943  -4.8891  -4.8891  -4.8873  -4.8873
  0:     -4.7520  -4.7520  -4.7506  -4.7506  -3.5798  -3.5798  -3.5750  -3.5750
  0:     -2.8718  -2.8718  -2.8683  -2.8683  -2.7400  -2.7400  -2.7365  -2.7365
  0:     -2.1517  -2.1517  -2.1505  -2.1505  -1.4672  -1.4672  -1.4580  -1.4580
  0:     -1.3795  -1.3795  -1.3708  -1.3708  -0.4616  -0.4616  -0.4488  -0.4488
  0:     -0.2365  -0.2365  -0.2025  -0.2025  -0.0491  -0.0491  -0.0296  -0.0296
  0:      0.4445   0.4445   0.5101   0.5101   0.5861   0.5861   0.7071   0.7071
  0:      0.7857   0.7857   0.8385   0.8385   0.8701   0.8701   0.9375   0.9375
  0:      1.0047   1.0047   1.0783   1.0783   1.1705   1.1705   1.2468   1.2468
  0:      1.3419   1.3419   1.4142   1.4142   1.7577   1.7577   1.7852   1.7852
  0:      5.1644   5.1644   5.2688   5.2688   6.0586   6.0586   6.1802   6.1802
  0:      6.5865   6.5865   6.6408   6.6408   6.8405   6.8405   6.9194   6.9194
  0:      7.8333   7.8333   7.8393   7.8393   8.5847   8.5847   8.6140   8.6140
  0:      8.8454   8.8454   8.8905   8.8905   9.1945   9.1945   9.2202   9.2202
  0:      9.4877   9.4877   9.5142   9.5142   9.6418   9.6418   9.6739   9.6739
  0:      9.8791   9.8791   9.8938   9.8938  10.0965  10.0965  10.1271  10.1271
  0:     10.3000  10.3000  10.3513  10.3513  10.5062  10.5062  10.5283  10.5283
  0:     10.7748  10.7748  10.8183  10.8183  11.1618  11.1618  11.1843  11.1843
  0: 
  0:           k =-0.1227 0.4709 0.1500 ( 52598 PWs)   bands (ev):
  0: 
  0:    -17.1644 -17.1644 -17.1644 -17.1644 -15.0192 -15.0192 -15.0187 -15.0187
  0:    -14.9968 -14.9968 -14.9960 -14.9960 -13.2804 -13.2804 -13.2802 -13.2802
  0:    -12.5422 -12.5422 -12.5317 -12.5317 -12.5032 -12.5032 -12.4929 -12.4929
  0:    -12.4134 -12.4134 -12.4125 -12.4125 -11.8980 -11.8980 -11.8973 -11.8973
  0:    -11.4754 -11.4754 -11.4747 -11.4747 -11.0963 -11.0963 -11.0836 -11.0836
  0:    -11.0167 -11.0167 -11.0037 -11.0037  -9.4065  -9.4065  -9.4064  -9.4064
  0:     -7.8277  -7.8277  -7.8276  -7.8276  -6.5455  -6.5455  -6.5453  -6.5453
  0:     -6.2949  -6.2949  -6.2947  -6.2947  -4.8896  -4.8896  -4.8879  -4.8879
  0:     -4.7531  -4.7531  -4.7518  -4.7518  -3.5801  -3.5801  -3.5751  -3.5751
  0:     -2.8719  -2.8719  -2.8686  -2.8686  -2.7389  -2.7389  -2.7356  -2.7356
  0:     -2.1502  -2.1502  -2.1491  -2.1491  -1.4625  -1.4625  -1.4533  -1.4533
  0:     -1.3742  -1.3742  -1.3648  -1.3648  -0.4638  -0.4638  -0.4520  -0.4520
  0:     -0.2367  -0.2367  -0.2032  -0.2032  -0.0559  -0.0559  -0.0380  -0.0380
  0:      0.4559   0.4559   0.5185   0.5185   0.5875   0.5875   0.7057   0.7057
  0:      0.7902   0.7902   0.8406   0.8406   0.8689   0.8689   0.9330   0.9330
  0:      1.0071   1.0071   1.0733   1.0733   1.1696   1.1696   1.2427   1.2427
  0:      1.3470   1.3470   1.4143   1.4143   1.7544   1.7544   1.7834   1.7834
  0:      5.1592   5.1592   5.2615   5.2615   6.0559   6.0559   6.1737   6.1737
  0:      6.5777   6.5777   6.6268   6.6268   6.8355   6.8355   6.9120   6.9120
  0:      7.8246   7.8246   7.8296   7.8296   8.5866   8.5866   8.6149   8.6149
  0:      8.8532   8.8532   8.8954   8.8954   9.1941   9.1941   9.2209   9.2209
  0:      9.4891   9.4891   9.5201   9.5201   9.6410   9.6410   9.6731   9.6731
  0:      9.8958   9.8958   9.9146   9.9146  10.0907  10.0907  10.1242  10.1242
  0:     10.3150  10.3150  10.3666  10.3666  10.5012  10.5012  10.5177  10.5177
  0:     10.7820  10.7820  10.8255  10.8255  11.1516  11.1516  11.1803  11.1803
  0: 
  0:           k =-0.1051 0.4709 0.1286 ( 52582 PWs)   bands (ev):
  0: 
  0:    -17.1644 -17.1644 -17.1644 -17.1644 -15.0192 -15.0192 -15.0187 -15.0187
  0:    -14.9968 -14.9968 -14.9960 -14.9960 -13.2804 -13.2804 -13.2802 -13.2802
  0:    -12.5422 -12.5422 -12.5316 -12.5316 -12.5032 -12.5032 -12.4928 -12.4928
  0:    -12.4134 -12.4134 -12.4126 -12.4126 -11.8982 -11.8982 -11.8976 -11.8976
  0:    -11.4762 -11.4762 -11.4757 -11.4757 -11.0934 -11.0934 -11.0805 -11.0805
  0:    -11.0179 -11.0179 -11.0047 -11.0047  -9.4065  -9.4065  -9.4064  -9.4064
  0:     -7.8290  -7.8290  -7.8289  -7.8289  -6.5460  -6.5460  -6.5458  -6.5458
  0:     -6.2952  -6.2952  -6.2950  -6.2950  -4.8902  -4.8902  -4.8887  -4.8887
  0:     -4.7540  -4.7540  -4.7528  -4.7528  -3.5803  -3.5803  -3.5753  -3.5753
  0:     -2.8718  -2.8718  -2.8688  -2.8688  -2.7379  -2.7379  -2.7349  -2.7349
  0:     -2.1490  -2.1490  -2.1479  -2.1479  -1.4587  -1.4587  -1.4498  -1.4498
  0:     -1.3683  -1.3683  -1.3586  -1.3586  -0.4655  -0.4655  -0.4549  -0.4549
  0:     -0.2364  -0.2364  -0.2041  -0.2041  -0.0623  -0.0623  -0.0458  -0.0458
  0:      0.4676   0.4676   0.5272   0.5272   0.5870   0.5870   0.7013   0.7013
  0:      0.7953   0.7953   0.8440   0.8440   0.8669   0.8669   0.9298   0.9298
  0:      1.0092   1.0092   1.0675   1.0675   1.1684   1.1684   1.2360   1.2360
  0:      1.3555   1.3555   1.4151   1.4151   1.7513   1.7513   1.7818   1.7818
  0:      5.1548   5.1548   5.2538   5.2538   6.0540   6.0540   6.1672   6.1672
  0:      6.5691   6.5691   6.6133   6.6133   6.8332   6.8332   6.9044   6.9044
  0:      7.8166   7.8166   7.8216   7.8216   8.5890   8.5890   8.6160   8.6160
  0:      8.8602   8.8602   8.8993   8.8993   9.1945   9.1945   9.2204   9.2204
  0:      9.4870   9.4870   9.5194   9.5194   9.6429   9.6429   9.6739   9.6739
  0:      9.9126   9.9126   9.9381   9.9381  10.0841  10.0841  10.1213  10.1213
  0:     10.3282  10.3282  10.3783  10.3783  10.5011  10.5011  10.5152  10.5152
  0:     10.7872  10.7872  10.8297  10.8297  11.1295  11.1295  11.1657  11.1657
  0: 
  0:           k =-0.0876 0.4709 0.1071 ( 52570 PWs)   bands (ev):
  0: 
  0:    -17.1644 -17.1644 -17.1644 -17.1644 -15.0192 -15.0192 -15.0187 -15.0187
  0:    -14.9968 -14.9968 -14.9960 -14.9960 -13.2804 -13.2804 -13.2802 -13.2802
  0:    -12.5421 -12.5421 -12.5314 -12.5314 -12.5033 -12.5033 -12.4928 -12.4928
  0:    -12.4134 -12.4134 -12.4126 -12.4126 -11.8984 -11.8984 -11.8979 -11.8979
  0:    -11.4770 -11.4770 -11.4765 -11.4765 -11.0907 -11.0907 -11.0777 -11.0777
  0:    -11.0190 -11.0190 -11.0058 -11.0058  -9.4065  -9.4065  -9.4064  -9.4064
  0:     -7.8303  -7.8303  -7.8302  -7.8302  -6.5464  -6.5464  -6.5463  -6.5463
  0:     -6.2955  -6.2955  -6.2953  -6.2953  -4.8907  -4.8907  -4.8894  -4.8894
  0:     -4.7547  -4.7547  -4.7537  -4.7537  -3.5805  -3.5805  -3.5755  -3.5755
  0:     -2.8717  -2.8717  -2.8690  -2.8690  -2.7369  -2.7369  -2.7343  -2.7343
  0:     -2.1478  -2.1478  -2.1470  -2.1470  -1.4555  -1.4555  -1.4472  -1.4472
  0:     -1.3625  -1.3625  -1.3525  -1.3525  -0.4669  -0.4669  -0.4574  -0.4574
  0:     -0.2356  -0.2356  -0.2053  -0.2053  -0.0679  -0.0679  -0.0530  -0.0530
  0:      0.4794   0.4794   0.5358   0.5358   0.5848   0.5848   0.6947   0.6947
  0:      0.8007   0.8007   0.8472   0.8472   0.8647   0.8647   0.9292   0.9292
  0:      1.0100   1.0100   1.0610   1.0610   1.1674   1.1674   1.2279   1.2279
  0:      1.3656   1.3656   1.4164   1.4164   1.7487   1.7487   1.7805   1.7805
  0:      5.1512   5.1512   5.2461   5.2461   6.0527   6.0527   6.1609   6.1609
  0:      6.5612   6.5612   6.6009   6.6009   6.8332   6.8332   6.8967   6.8967
  0:      7.8097   7.8097   7.8149   7.8149   8.5918   8.5918   8.6173   8.6173
  0:      8.8666   8.8666   8.9022   8.9022   9.1959   9.1959   9.2194   9.2194
  0:      9.4823   9.4823   9.5133   9.5133   9.6466   9.6466   9.6763   9.6763
  0:      9.9292   9.9292   9.9620   9.9620  10.0769  10.0769  10.1185  10.1185
  0:     10.3387  10.3387  10.3839  10.3839  10.5057  10.5057  10.5241  10.5241
  0:     10.7906  10.7906  10.8308  10.8308  11.1003  11.1003  11.1411  11.1411
  0: 
  0:           k =-0.0701 0.4709 0.0857 ( 52544 PWs)   bands (ev):
  0: 
  0:    -17.1644 -17.1644 -17.1644 -17.1644 -15.0192 -15.0192 -15.0187 -15.0187
  0:    -14.9968 -14.9968 -14.9960 -14.9960 -13.2804 -13.2804 -13.2802 -13.2802
  0:    -12.5421 -12.5421 -12.5313 -12.5313 -12.5033 -12.5033 -12.4928 -12.4928
  0:    -12.4134 -12.4134 -12.4126 -12.4126 -11.8986 -11.8986 -11.8981 -11.8981
  0:    -11.4777 -11.4777 -11.4772 -11.4772 -11.0882 -11.0882 -11.0754 -11.0754
  0:    -11.0200 -11.0200 -11.0068 -11.0068  -9.4065  -9.4065  -9.4065  -9.4065
  0:     -7.8313  -7.8313  -7.8312  -7.8312  -6.5468  -6.5468  -6.5467  -6.5467
  0:     -6.2957  -6.2957  -6.2955  -6.2955  -4.8912  -4.8912  -4.8901  -4.8901
  0:     -4.7553  -4.7553  -4.7544  -4.7544  -3.5807  -3.5807  -3.5756  -3.5756
  0:     -2.8715  -2.8715  -2.8692  -2.8692  -2.7361  -2.7361  -2.7339  -2.7339
  0:     -2.1469  -2.1469  -2.1462  -2.1462  -1.4529  -1.4529  -1.4455  -1.4455
  0:     -1.3569  -1.3569  -1.3469  -1.3469  -0.4678  -0.4678  -0.4596  -0.4596
  0:     -0.2342  -0.2342  -0.2068  -0.2068  -0.0725  -0.0725  -0.0595  -0.0595
  0:      0.4911   0.4911   0.5440   0.5440   0.5811   0.5811   0.6869   0.6869
  0:      0.8062   0.8062   0.8483   0.8483   0.8635   0.8635   0.9321   0.9321
  0:      1.0087   1.0087   1.0548   1.0548   1.1670   1.1670   1.2195   1.2195
  0:      1.3759   1.3759   1.4179   1.4179   1.7464   1.7464   1.7793   1.7793
  0:      5.1484   5.1484   5.2388   5.2388   6.0520   6.0520   6.1553   6.1553
  0:      6.5543   6.5543   6.5901   6.5901   6.8352   6.8352   6.8889   6.8889
  0:      7.8041   7.8041   7.8095   7.8095   8.5947   8.5947   8.6184   8.6184
  0:      8.8722   8.8722   8.9043   8.9043   9.1982   9.1982   9.2184   9.2184
  0:      9.4760   9.4760   9.5040   9.5040   9.6507   9.6507   9.6795   9.6795
  0:      9.9449   9.9449   9.9838   9.9838  10.0702  10.0702  10.1160  10.1160
  0:     10.3463  10.3463  10.3834  10.3834  10.5173  10.5173  10.5403  10.5403
  0:     10.7928  10.7928  10.8296  10.8296  11.0688  11.0688  11.1104  11.1104
  0: 
  0:           k =-0.0526 0.4709 0.0643 ( 52564 PWs)   bands (ev):
  0: 
  0:    -17.1644 -17.1644 -17.1644 -17.1644 -15.0192 -15.0192 -15.0187 -15.0187
  0:    -14.9968 -14.9968 -14.9960 -14.9960 -13.2804 -13.2804 -13.2803 -13.2803
  0:    -12.5421 -12.5421 -12.5312 -12.5312 -12.5033 -12.5033 -12.4927 -12.4927
  0:    -12.4134 -12.4134 -12.4126 -12.4126 -11.8987 -11.8987 -11.8983 -11.8983
  0:    -11.4782 -11.4782 -11.4777 -11.4777 -11.0861 -11.0861 -11.0734 -11.0734
  0:    -11.0208 -11.0208 -11.0078 -11.0078  -9.4065  -9.4065  -9.4065  -9.4065
  0:     -7.8321  -7.8321  -7.8320  -7.8320  -6.5471  -6.5471  -6.5470  -6.5470
  0:     -6.2959  -6.2959  -6.2958  -6.2958  -4.8916  -4.8916  -4.8907  -4.8907
  0:     -4.7557  -4.7557  -4.7549  -4.7549  -3.5809  -3.5809  -3.5757  -3.5757
  0:     -2.8713  -2.8713  -2.8694  -2.8694  -2.7354  -2.7354  -2.7336  -2.7336
  0:     -2.1462  -2.1462  -2.1456  -2.1456  -1.4509  -1.4509  -1.4445  -1.4445
  0:     -1.3522  -1.3522  -1.3422  -1.3422  -0.4684  -0.4684  -0.4615  -0.4615
  0:     -0.2323  -0.2323  -0.2086  -0.2086  -0.0759  -0.0759  -0.0652  -0.0652
  0:      0.5025   0.5025   0.5512   0.5512   0.5761   0.5761   0.6790   0.6790
  0:      0.8118   0.8118   0.8457   0.8457   0.8642   0.8642   0.9386   0.9386
  0:      1.0042   1.0042   1.0498   1.0498   1.1672   1.1672   1.2117   1.2117
  0:      1.3850   1.3850   1.4192   1.4192   1.7447   1.7447   1.7784   1.7784
  0:      5.1465   5.1465   5.2324   5.2324   6.0518   6.0518   6.1504   6.1504
  0:      6.5487   6.5487   6.5813   6.5813   6.8388   6.8388   6.8811   6.8811
  0:      7.7997   7.7997   7.8051   7.8051   8.5975   8.5975   8.6192   8.6192
  0:      8.8769   8.8769   8.9056   8.9056   9.2015   9.2015   9.2175   9.2175
  0:      9.4695   9.4695   9.4939   9.4939   9.6547   9.6547   9.6825   9.6825
  0:      9.9588   9.9588  10.0009  10.0009  10.0657  10.0657  10.1136  10.1136
  0:     10.3514  10.3514  10.3790  10.3790  10.5347  10.5347  10.5587  10.5587
  0:     10.7948  10.7948  10.8266  10.8266  11.0395  11.0395  11.0776  11.0776
  0: 
  0:           k =-0.0350 0.4709 0.0429 ( 52564 PWs)   bands (ev):
  0: 
  0:    -17.1644 -17.1644 -17.1644 -17.1644 -15.0192 -15.0192 -15.0187 -15.0187
  0:    -14.9968 -14.9968 -14.9960 -14.9960 -13.2804 -13.2804 -13.2803 -13.2803
  0:    -12.5421 -12.5421 -12.5311 -12.5311 -12.5033 -12.5033 -12.4927 -12.4927
  0:    -12.4134 -12.4134 -12.4126 -12.4126 -11.8988 -11.8988 -11.8984 -11.8984
  0:    -11.4786 -11.4786 -11.4781 -11.4781 -11.0844 -11.0844 -11.0720 -11.0720
  0:    -11.0214 -11.0214 -11.0085 -11.0085  -9.4065  -9.4065  -9.4065  -9.4065
  0:     -7.8327  -7.8327  -7.8326  -7.8326  -6.5473  -6.5473  -6.5472  -6.5472
  0:     -6.2960  -6.2960  -6.2959  -6.2959  -4.8919  -4.8919  -4.8912  -4.8912
  0:     -4.7560  -4.7560  -4.7553  -4.7553  -3.5810  -3.5810  -3.5758  -3.5758
  0:     -2.8711  -2.8711  -2.8695  -2.8695  -2.7348  -2.7348  -2.7335  -2.7335
  0:     -2.1456  -2.1456  -2.1452  -2.1452  -1.4495  -1.4495  -1.4439  -1.4439
  0:     -1.3485  -1.3485  -1.3386  -1.3386  -0.4687  -0.4687  -0.4629  -0.4629
  0:     -0.2301  -0.2301  -0.2105  -0.2105  -0.0779  -0.0779  -0.0701  -0.0701
  0:      0.5128   0.5128   0.5568   0.5568   0.5709   0.5709   0.6722   0.6722
  0:      0.8174   0.8174   0.8409   0.8409   0.8657   0.8657   0.9480   0.9480
  0:      0.9964   0.9964   1.0466   1.0466   1.1679   1.1679   1.2052   1.2052
  0:      1.3923   1.3923   1.4202   1.4202   1.7435   1.7435   1.7777   1.7777
  0:      5.1452   5.1452   5.2273   5.2273   6.0519   6.0519   6.1466   6.1466
  0:      6.5446   6.5446   6.5748   6.5748   6.8436   6.8436   6.8734   6.8734
  0:      7.7967   7.7967   7.8018   7.8018   8.5998   8.5998   8.6197   8.6197
  0:      8.8806   8.8806   8.9062   8.9062   9.2052   9.2052   9.2165   9.2165
  0:      9.4641   9.4641   9.4848   9.4848   9.6581   9.6581   9.6845   9.6845
  0:      9.9701   9.9701  10.0104  10.0104  10.0660  10.0660  10.1108  10.1108
  0:     10.3549  10.3549  10.3736  10.3736  10.5542  10.5542  10.5744  10.5744
  0:     10.7975  10.7975  10.8224  10.8224  11.0168  11.0168  11.0467  11.0467
  0: 
  0:           k =-0.0175 0.4709 0.0214 ( 52540 PWs)   bands (ev):
  0: 
  0:    -17.1645 -17.1645 -17.1645 -17.1645 -15.0192 -15.0192 -15.0187 -15.0187
  0:    -14.9968 -14.9968 -14.9960 -14.9960 -13.2804 -13.2804 -13.2803 -13.2803
  0:    -12.5420 -12.5420 -12.5311 -12.5311 -12.5033 -12.5033 -12.4927 -12.4927
  0:    -12.4134 -12.4134 -12.4126 -12.4126 -11.8989 -11.8989 -11.8985 -11.8985
  0:    -11.4788 -11.4788 -11.4784 -11.4784 -11.0834 -11.0834 -11.0711 -11.0711
  0:    -11.0217 -11.0217 -11.0091 -11.0091  -9.4065  -9.4065  -9.4065  -9.4065
  0:     -7.8331  -7.8331  -7.8330  -7.8330  -6.5475  -6.5475  -6.5474  -6.5474
  0:     -6.2961  -6.2961  -6.2960  -6.2960  -4.8921  -4.8921  -4.8915  -4.8915
  0:     -4.7561  -4.7561  -4.7555  -4.7555  -3.5811  -3.5811  -3.5759  -3.5759
  0:     -2.8710  -2.8710  -2.8696  -2.8696  -2.7344  -2.7344  -2.7336  -2.7336
  0:     -2.1453  -2.1453  -2.1450  -2.1450  -1.4486  -1.4486  -1.4436  -1.4436
  0:     -1.3462  -1.3462  -1.3364  -1.3364  -0.4688  -0.4688  -0.4638  -0.4638
  0:     -0.2283  -0.2283  -0.2122  -0.2122  -0.0784  -0.0784  -0.0738  -0.0738
  0:      0.5208   0.5208   0.5590   0.5590   0.5675   0.5675   0.6674   0.6674
  0:      0.8230   0.8230   0.8353   0.8353   0.8667   0.8667   0.9588   0.9588
  0:      0.9865   0.9865   1.0450   1.0450   1.1686   1.1686   1.2008   1.2008
  0:      1.3970   1.3970   1.4207   1.4207   1.7427   1.7427   1.7773   1.7773
  0:      5.1446   5.1446   5.2241   5.2241   6.0520   6.0520   6.1443   6.1443
  0:      6.5421   6.5421   6.5708   6.5708   6.8490   6.8490   6.8663   6.8663
  0:      7.7949   7.7949   7.7998   7.7998   8.6013   8.6013   8.6199   8.6199
  0:      8.8830   8.8830   8.9063   8.9063   9.2090   9.2090   9.2149   9.2149
  0:      9.4607   9.4607   9.4784   9.4784   9.6605   9.6605   9.6855   9.6855
  0:      9.9781   9.9781  10.0126  10.0126  10.0704  10.0704  10.1077  10.1077
  0:     10.3573  10.3573  10.3689  10.3689  10.5714  10.5714  10.5831  10.5831
  0:     10.8011  10.8011  10.8175  10.8175  11.0050  11.0050  11.0217  11.0217
  0: 
  0:           k = 0.0000 0.4709 0.0000 ( 52524 PWs)   bands (ev):
  0: 
  0:    -17.1645 -17.1645 -17.1645 -17.1645 -15.0192 -15.0192 -15.0187 -15.0187
  0:    -14.9968 -14.9968 -14.9960 -14.9960 -13.2805 -13.2805 -13.2803 -13.2803
  0:    -12.5420 -12.5420 -12.5311 -12.5311 -12.5033 -12.5033 -12.4927 -12.4927
  0:    -12.4134 -12.4134 -12.4126 -12.4126 -11.8989 -11.8989 -11.8986 -11.8986
  0:    -11.4789 -11.4789 -11.4785 -11.4785 -11.0830 -11.0830 -11.0708 -11.0708
  0:    -11.0219 -11.0219 -11.0092 -11.0092  -9.4065  -9.4065  -9.4065  -9.4065
  0:     -7.8332  -7.8332  -7.8331  -7.8331  -6.5475  -6.5475  -6.5474  -6.5474
  0:     -6.2962  -6.2962  -6.2961  -6.2961  -4.8921  -4.8921  -4.8917  -4.8917
  0:     -4.7562  -4.7562  -4.7556  -4.7556  -3.5811  -3.5811  -3.5759  -3.5759
  0:     -2.8709  -2.8709  -2.8697  -2.8697  -2.7342  -2.7342  -2.7336  -2.7336
  0:     -2.1451  -2.1451  -2.1449  -2.1449  -1.4483  -1.4483  -1.4435  -1.4435
  0:     -1.3454  -1.3454  -1.3356  -1.3356  -0.4689  -0.4689  -0.4641  -0.4641
  0:     -0.2275  -0.2275  -0.2129  -0.2129  -0.0781  -0.0781  -0.0755  -0.0755
  0:      0.5241   0.5241   0.5585   0.5585   0.5670   0.5670   0.6657   0.6657
  0:      0.8272   0.8272   0.8311   0.8311   0.8671   0.8671   0.9664   0.9664
  0:      0.9792   0.9792   1.0445   1.0445   1.1689   1.1689   1.1993   1.1993
  0:      1.3986   1.3986   1.4209   1.4209   1.7425   1.7425   1.7772   1.7772
  0:      5.1443   5.1443   5.2230   5.2230   6.0521   6.0521   6.1434   6.1434
  0:      6.5412   6.5412   6.5695   6.5695   6.8526   6.8526   6.8622   6.8622
  0:      7.7943   7.7943   7.7992   7.7992   8.6019   8.6019   8.6200   8.6200
  0:      8.8838   8.8838   8.9063   8.9063   9.2116   9.2116   9.2130   9.2130
  0:      9.4596   9.4596   9.4761   9.4761   9.6614   9.6614   9.6857   9.6857
  0:      9.9812   9.9812  10.0124  10.0124  10.0732  10.0732  10.1060  10.1060
  0:     10.3585  10.3585  10.3669  10.3669  10.5819  10.5819  10.5822  10.5822
  0:     10.8036  10.8036  10.8145  10.8145  11.0066  11.0066  11.0070  11.0070
  0: 
  0:           k =-0.0074 0.4709 0.0297 ( 52548 PWs)   bands (ev):
  0: 
  0:    -17.1645 -17.1645 -17.1645 -17.1645 -15.0192 -15.0192 -15.0187 -15.0187
  0:    -14.9968 -14.9968 -14.9960 -14.9960 -13.2805 -13.2805 -13.2803 -13.2803
  0:    -12.5420 -12.5420 -12.5311 -12.5311 -12.5033 -12.5033 -12.4927 -12.4927
  0:    -12.4134 -12.4134 -12.4126 -12.4126 -11.8989 -11.8989 -11.8985 -11.8985
  0:    -11.4789 -11.4789 -11.4785 -11.4785 -11.0833 -11.0833 -11.0710 -11.0710
  0:    -11.0217 -11.0217 -11.0090 -11.0090  -9.4065  -9.4065  -9.4065  -9.4065
  0:     -7.8332  -7.8332  -7.8331  -7.8331  -6.5475  -6.5475  -6.5474  -6.5474
  0:     -6.2961  -6.2961  -6.2960  -6.2960  -4.8920  -4.8920  -4.8915  -4.8915
  0:     -4.7561  -4.7561  -4.7556  -4.7556  -3.5810  -3.5810  -3.5758  -3.5758
  0:     -2.8710  -2.8710  -2.8696  -2.8696  -2.7344  -2.7344  -2.7335  -2.7335
  0:     -2.1453  -2.1453  -2.1450  -2.1450  -1.4484  -1.4484  -1.4435  -1.4435
  0:     -1.3461  -1.3461  -1.3363  -1.3363  -0.4693  -0.4693  -0.4640  -0.4640
  0:     -0.2284  -0.2284  -0.2125  -0.2125  -0.0784  -0.0784  -0.0740  -0.0740
  0:      0.5207   0.5207   0.5563   0.5563   0.5696   0.5696   0.6676   0.6676
  0:      0.8226   0.8226   0.8360   0.8360   0.8670   0.8670   0.9566   0.9566
  0:      0.9886   0.9886   1.0452   1.0452   1.1686   1.1686   1.2017   1.2017
  0:      1.3978   1.3978   1.4211   1.4211   1.7424   1.7424   1.7771   1.7771
  0:      5.1441   5.1441   5.2232   5.2232   6.0513   6.0513   6.1438   6.1438
  0:      6.5420   6.5420   6.5707   6.5707   6.8492   6.8492   6.8668   6.8668
  0:      7.7951   7.7951   7.8004   7.8004   8.6016   8.6016   8.6200   8.6200
  0:      8.8810   8.8810   8.9052   8.9052   9.2104   9.2104   9.2166   9.2166
  0:      9.4607   9.4607   9.4779   9.4779   9.6606   9.6606   9.6856   9.6856
  0:      9.9792   9.9792  10.0130  10.0130  10.0684  10.0684  10.1044  10.1044
  0:     10.3576  10.3576  10.3686  10.3686  10.5717  10.5717  10.5859  10.5859
  0:     10.8003  10.8003  10.8174  10.8174  11.0086  11.0086  11.0212  11.0212
  0: 
  0:           k =-0.0148 0.4709 0.0594 ( 52554 PWs)   bands (ev):
  0: 
  0:    -17.1645 -17.1645 -17.1645 -17.1645 -15.0192 -15.0192 -15.0187 -15.0187
  0:    -14.9968 -14.9968 -14.9960 -14.9960 -13.2805 -13.2805 -13.2803 -13.2803
  0:    -12.5421 -12.5421 -12.5311 -12.5311 -12.5033 -12.5033 -12.4927 -12.4927
  0:    -12.4134 -12.4134 -12.4126 -12.4126 -11.8988 -11.8988 -11.8983 -11.8983
  0:    -11.4790 -11.4790 -11.4786 -11.4786 -11.0840 -11.0840 -11.0716 -11.0716
  0:    -11.0212 -11.0212 -11.0085 -11.0085  -9.4065  -9.4065  -9.4065  -9.4065
  0:     -7.8330  -7.8330  -7.8329  -7.8329  -6.5476  -6.5476  -6.5475  -6.5475
  0:     -6.2961  -6.2961  -6.2959  -6.2959  -4.8918  -4.8918  -4.8911  -4.8911
  0:     -4.7560  -4.7560  -4.7554  -4.7554  -3.5808  -3.5808  -3.5756  -3.5756
  0:     -2.8712  -2.8712  -2.8695  -2.8695  -2.7348  -2.7348  -2.7333  -2.7333
  0:     -2.1457  -2.1457  -2.1452  -2.1452  -1.4486  -1.4486  -1.4433  -1.4433
  0:     -1.3481  -1.3481  -1.3382  -1.3382  -0.4703  -0.4703  -0.4637  -0.4637
  0:     -0.2307  -0.2307  -0.2116  -0.2116  -0.0782  -0.0782  -0.0707  -0.0707
  0:      0.5121   0.5121   0.5512   0.5512   0.5744   0.5744   0.6727   0.6727
  0:      0.8169   0.8169   0.8424   0.8424   0.8669   0.8669   0.9434   0.9434
  0:      1.0004   1.0004   1.0475   1.0475   1.1683   1.1683   1.2082   1.2082
  0:      1.3954   1.3954   1.4220   1.4220   1.7421   1.7421   1.7767   1.7767
  0:      5.1433   5.1433   5.2239   5.2239   6.0492   6.0492   6.1448   6.1448
  0:      6.5442   6.5442   6.5745   6.5745   6.8445   6.8445   6.8753   6.8753
  0:      7.7975   7.7975   7.8041   7.8041   8.6007   8.6007   8.6201   8.6201
  0:      8.8731   8.8731   8.9016   8.9016   9.2110   9.2110   9.2223   9.2223
  0:      9.4639   9.4639   9.4826   9.4826   9.6586   9.6586   9.6851   9.6851
  0:      9.9740   9.9740  10.0129  10.0129  10.0572  10.0572  10.0993  10.0993
  0:     10.3560  10.3560  10.3726  10.3726  10.5566  10.5566  10.5829  10.5829
  0:     10.7954  10.7954  10.8211  10.8211  11.0272  11.0272  11.0478  11.0478
  0: 
  0:           k =-0.0222 0.4709 0.0891 ( 52568 PWs)   bands (ev):
  0: 
  0:    -17.1644 -17.1644 -17.1644 -17.1644 -15.0192 -15.0192 -15.0187 -15.0187
  0:    -14.9968 -14.9968 -14.9960 -14.9960 -13.2805 -13.2805 -13.2803 -13.2803
  0:    -12.5421 -12.5421 -12.5312 -12.5312 -12.5033 -12.5033 -12.4927 -12.4927
  0:    -12.4134 -12.4134 -12.4126 -12.4126 -11.8986 -11.8986 -11.8981 -11.8981
  0:    -11.4791 -11.4791 -11.4787 -11.4787 -11.0851 -11.0851 -11.0726 -11.0726
  0:    -11.0205 -11.0205 -11.0076 -11.0076  -9.4065  -9.4065  -9.4064  -9.4064
  0:     -7.8326  -7.8326  -7.8325  -7.8325  -6.5478  -6.5478  -6.5476  -6.5476
  0:     -6.2959  -6.2959  -6.2958  -6.2958  -4.8913  -4.8913  -4.8905  -4.8905
  0:     -4.7559  -4.7559  -4.7551  -4.7551  -3.5804  -3.5804  -3.5753  -3.5753
  0:     -2.8715  -2.8715  -2.8693  -2.8693  -2.7353  -2.7353  -2.7331  -2.7331
  0:     -2.1464  -2.1464  -2.1456  -2.1456  -1.4490  -1.4490  -1.4430  -1.4430
  0:     -1.3513  -1.3513  -1.3412  -1.3412  -0.4717  -0.4717  -0.4635  -0.4635
  0:     -0.2337  -0.2337  -0.2108  -0.2108  -0.0769  -0.0769  -0.0666  -0.0666
  0:      0.5007   0.5007   0.5442   0.5442   0.5793   0.5793   0.6802   0.6802
  0:      0.8117   0.8117   0.8480   0.8480   0.8673   0.8673   0.9319   0.9319
  0:      1.0092   1.0092   1.0519   1.0519   1.1690   1.1690   1.2175   1.2175
  0:      1.3915   1.3915   1.4234   1.4234   1.7416   1.7416   1.7761   1.7761
  0:      5.1422   5.1422   5.2250   5.2250   6.0462   6.0462   6.1462   6.1462
  0:      6.5471   6.5471   6.5807   6.5807   6.8413   6.8413   6.8851   6.8851
  0:      7.8021   7.8021   7.8099   7.8099   8.5993   8.5993   8.6201   8.6201
  0:      8.8617   8.8617   8.8957   8.8957   9.2135   9.2135   9.2285   9.2285
  0:      9.4681   9.4681   9.4889   9.4889   9.6558   9.6558   9.6843   9.6843
  0:      9.9668   9.9668  10.0072  10.0072  10.0468  10.0468  10.0922  10.0922
  0:     10.3542  10.3542  10.3773  10.3773  10.5388  10.5388  10.5737  10.5737
  0:     10.7918  10.7918  10.8231  10.8231  11.0592  11.0592  11.0823  11.0823
  0: 
  0:           k =-0.0296 0.4709 0.1188 ( 52544 PWs)   bands (ev):
  0: 
  0:    -17.1644 -17.1644 -17.1644 -17.1644 -15.0192 -15.0192 -15.0187 -15.0187
  0:    -14.9968 -14.9968 -14.9960 -14.9960 -13.2805 -13.2805 -13.2803 -13.2803
  0:    -12.5421 -12.5421 -12.5313 -12.5313 -12.5033 -12.5033 -12.4927 -12.4927
  0:    -12.4134 -12.4134 -12.4126 -12.4126 -11.8983 -11.8983 -11.8978 -11.8978
  0:    -11.4793 -11.4793 -11.4788 -11.4788 -11.0865 -11.0865 -11.0739 -11.0739
  0:    -11.0195 -11.0195 -11.0065 -11.0065  -9.4065  -9.4065  -9.4064  -9.4064
  0:     -7.8322  -7.8322  -7.8321  -7.8321  -6.5479  -6.5479  -6.5478  -6.5478
  0:     -6.2957  -6.2957  -6.2955  -6.2955  -4.8907  -4.8907  -4.8897  -4.8897
  0:     -4.7556  -4.7556  -4.7547  -4.7547  -3.5800  -3.5800  -3.5749  -3.5749
  0:     -2.8717  -2.8717  -2.8691  -2.8691  -2.7358  -2.7358  -2.7331  -2.7331
  0:     -2.1472  -2.1472  -2.1463  -2.1463  -1.4495  -1.4495  -1.4429  -1.4429
  0:     -1.3555  -1.3555  -1.3453  -1.3453  -0.4733  -0.4733  -0.4633  -0.4633
  0:     -0.2366  -0.2366  -0.2102  -0.2102  -0.0747  -0.0747  -0.0621  -0.0621
  0:      0.4881   0.4881   0.5361   0.5361   0.5833   0.5833   0.6890   0.6890
  0:      0.8069   0.8069   0.8510   0.8510   0.8694   0.8694   0.9236   0.9236
  0:      1.0140   1.0140   1.0580   1.0580   1.1711   1.1711   1.2284   1.2284
  0:      1.3867   1.3867   1.4254   1.4254   1.7410   1.7410   1.7753   1.7753
  0:      5.1410   5.1410   5.2267   5.2267   6.0430   6.0430   6.1477   6.1477
  0:      6.5503   6.5503   6.5887   6.5887   6.8400   6.8400   6.8959   6.8959
  0:      7.8089   7.8089   7.8176   7.8176   8.5977   8.5977   8.6201   8.6201
  0:      8.8483   8.8483   8.8883   8.8883   9.2171   9.2171   9.2339   9.2339
  0:      9.4717   9.4717   9.4940   9.4940   9.6533   9.6533   9.6840   9.6840
  0:      9.9584   9.9584   9.9926   9.9926  10.0426  10.0426  10.0861  10.0861
  0:     10.3524  10.3524  10.3819  10.3819  10.5206  10.5206  10.5599  10.5599
  0:     10.7888  10.7888  10.8230  10.8230  11.0992  11.0992  11.1212  11.1212
  0: 
  0:           k =-0.0370 0.4709 0.1485 ( 52580 PWs)   bands (ev):
  0: 
  0:    -17.1644 -17.1644 -17.1644 -17.1644 -15.0192 -15.0192 -15.0187 -15.0187
  0:    -14.9968 -14.9968 -14.9960 -14.9960 -13.2805 -13.2805 -13.2803 -13.2803
  0:    -12.5421 -12.5421 -12.5313 -12.5313 -12.5033 -12.5033 -12.4928 -12.4928
  0:    -12.4134 -12.4134 -12.4126 -12.4126 -11.8980 -11.8980 -11.8974 -11.8974
  0:    -11.4795 -11.4795 -11.4790 -11.4790 -11.0881 -11.0881 -11.0755 -11.0755
  0:    -11.0183 -11.0183 -11.0053 -11.0053  -9.4064  -9.4064  -9.4064  -9.4064
  0:     -7.8316  -7.8316  -7.8315  -7.8315  -6.5481  -6.5481  -6.5479  -6.5479
  0:     -6.2955  -6.2955  -6.2953  -6.2953  -4.8899  -4.8899  -4.8887  -4.8887
  0:     -4.7553  -4.7553  -4.7543  -4.7543  -3.5794  -3.5794  -3.5744  -3.5744
  0:     -2.8719  -2.8719  -2.8689  -2.8689  -2.7364  -2.7364  -2.7331  -2.7331
  0:     -2.1483  -2.1483  -2.1472  -2.1472  -1.4503  -1.4503  -1.4430  -1.4430
  0:     -1.3604  -1.3604  -1.3500  -1.3500  -0.4750  -0.4750  -0.4633  -0.4633
  0:     -0.2392  -0.2392  -0.2098  -0.2098  -0.0721  -0.0721  -0.0576  -0.0576
  0:      0.4751   0.4751   0.5275   0.5275   0.5861   0.5861   0.6982   0.6982
  0:      0.8026   0.8026   0.8507   0.8507   0.8735   0.8735   0.9194   0.9194
  0:      1.0156   1.0156   1.0644   1.0644   1.1747   1.1747   1.2398   1.2398
  0:      1.3814   1.3814   1.4281   1.4281   1.7404   1.7404   1.7744   1.7744
  0:      5.1399   5.1399   5.2289   5.2289   6.0402   6.0402   6.1491   6.1491
  0:      6.5534   6.5534   6.5975   6.5975   6.8414   6.8414   6.9074   6.9074
  0:      7.8183   7.8183   7.8272   7.8272   8.5959   8.5959   8.6201   8.6201
  0:      8.8343   8.8343   8.8803   8.8803   9.2203   9.2203   9.2374   9.2374
  0:      9.4726   9.4726   9.4946   9.4946   9.6525   9.6525   9.6858   9.6858
  0:      9.9488   9.9488   9.9731   9.9731  10.0425  10.0425  10.0834  10.0834
  0:     10.3512  10.3512  10.3857  10.3857  10.5043  10.5043  10.5436  10.5436
  0:     10.7848  10.7848  10.8197  10.8197  11.1413  11.1413  11.1624  11.1624
  0: 
  0:           k =-0.0444 0.4709 0.1783 ( 52594 PWs)   bands (ev):
  0: 
  0:    -17.1644 -17.1644 -17.1644 -17.1644 -15.0192 -15.0192 -15.0187 -15.0187
  0:    -14.9968 -14.9968 -14.9960 -14.9960 -13.2805 -13.2805 -13.2803 -13.2803
  0:    -12.5422 -12.5422 -12.5314 -12.5314 -12.5033 -12.5033 -12.4928 -12.4928
  0:    -12.4134 -12.4134 -12.4125 -12.4125 -11.8976 -11.8976 -11.8970 -11.8970
  0:    -11.4797 -11.4797 -11.4791 -11.4791 -11.0899 -11.0899 -11.0773 -11.0773
  0:    -11.0170 -11.0170 -11.0040 -11.0040  -9.4064  -9.4064  -9.4063  -9.4063
  0:     -7.8309  -7.8309  -7.8308  -7.8308  -6.5483  -6.5483  -6.5480  -6.5480
  0:     -6.2952  -6.2952  -6.2950  -6.2950  -4.8890  -4.8890  -4.8877  -4.8877
  0:     -4.7548  -4.7548  -4.7537  -4.7537  -3.5788  -3.5788  -3.5738  -3.5738
  0:     -2.8721  -2.8721  -2.8687  -2.8687  -2.7370  -2.7370  -2.7333  -2.7333
  0:     -2.1496  -2.1496  -2.1483  -2.1483  -1.4514  -1.4514  -1.4435  -1.4435
  0:     -1.3657  -1.3657  -1.3553  -1.3553  -0.4765  -0.4765  -0.4632  -0.4632
  0:     -0.2413  -0.2413  -0.2096  -0.2096  -0.0692  -0.0692  -0.0534  -0.0534
  0:      0.4624   0.4624   0.5191   0.5191   0.5878   0.5878   0.7068   0.7068
  0:      0.7984   0.7984   0.8485   0.8485   0.8782   0.8782   0.9193   0.9193
  0:      1.0153   1.0153   1.0698   1.0698   1.1796   1.1796   1.2502   1.2502
  0:      1.3765   1.3765   1.4314   1.4314   1.7398   1.7398   1.7733   1.7733
  0:      5.1391   5.1391   5.2317   5.2317   6.0381   6.0381   6.1504   6.1504
  0:      6.5563   6.5563   6.6061   6.6061   6.8457   6.8457   6.9192   6.9192
  0:      7.8302   7.8302   7.8387   7.8387   8.5942   8.5942   8.6199   8.6199
  0:      8.8206   8.8206   8.8723   8.8723   9.2220   9.2220   9.2380   9.2380
  0:      9.4690   9.4690   9.4883   9.4883   9.6553   9.6553   9.6913   9.6913
  0:      9.9372   9.9372   9.9544   9.9544  10.0447  10.0447  10.0846  10.0846
  0:     10.3505  10.3505  10.3881  10.3881  10.4917  10.4917  10.5271  10.5271
  0:     10.7784  10.7784  10.8124  10.8124  11.1806  11.1806  11.2036  11.2036
  0: 
  0:           k =-0.0518 0.4709 0.2080 ( 52610 PWs)   bands (ev):
  0: 
  0:    -17.1644 -17.1644 -17.1644 -17.1644 -15.0192 -15.0192 -15.0187 -15.0187
  0:    -14.9968 -14.9968 -14.9960 -14.9960 -13.2805 -13.2805 -13.2803 -13.2803
  0:    -12.5422 -12.5422 -12.5316 -12.5316 -12.5033 -12.5033 -12.4928 -12.4928
  0:    -12.4134 -12.4134 -12.4125 -12.4125 -11.8972 -11.8972 -11.8965 -11.8965
  0:    -11.4798 -11.4798 -11.4792 -11.4792 -11.0918 -11.0918 -11.0792 -11.0792
  0:    -11.0157 -11.0157 -11.0028 -11.0028  -9.4063  -9.4063  -9.4063  -9.4063
  0:     -7.8301  -7.8301  -7.8300  -7.8300  -6.5484  -6.5484  -6.5481  -6.5481
  0:     -6.2950  -6.2950  -6.2947  -6.2947  -4.8880  -4.8880  -4.8866  -4.8866
  0:     -4.7543  -4.7543  -4.7531  -4.7531  -3.5782  -3.5782  -3.5733  -3.5733
  0:     -2.8721  -2.8721  -2.8684  -2.8684  -2.7376  -2.7376  -2.7336  -2.7336
  0:     -2.1511  -2.1511  -2.1496  -2.1496  -1.4530  -1.4530  -1.4446  -1.4446
  0:     -1.3711  -1.3711  -1.3606  -1.3606  -0.4778  -0.4778  -0.4631  -0.4631
  0:     -0.2428  -0.2428  -0.2094  -0.2094  -0.0665  -0.0665  -0.0495  -0.0495
  0:      0.4504   0.4504   0.5113   0.5113   0.5883   0.5883   0.7141   0.7141
  0:      0.7945   0.7945   0.8463   0.8463   0.8819   0.8819   0.9230   0.9230
  0:      1.0142   1.0142   1.0739   1.0739   1.1851   1.1851   1.2580   1.2580
  0:      1.3733   1.3733   1.4352   1.4352   1.7393   1.7393   1.7723   1.7723
  0:      5.1388   5.1388   5.2353   5.2353   6.0372   6.0372   6.1515   6.1515
  0:      6.5591   6.5591   6.6136   6.6136   6.8530   6.8530   6.9312   6.9312
  0:      7.8449   7.8449   7.8524   7.8524   8.5924   8.5924   8.6196   8.6196
  0:      8.8082   8.8082   8.8651   8.8651   9.2205   9.2205   9.2346   9.2346
  0:      9.4601   9.4601   9.4753   9.4753   9.6618   9.6618   9.7005   9.7005
  0:      9.9221   9.9221   9.9399   9.9399  10.0494  10.0494  10.0893  10.0893
  0:     10.3496  10.3496  10.3883  10.3883  10.4846  10.4846  10.5138  10.5138
  0:     10.7686  10.7686  10.8008  10.8008  11.2127  11.2127  11.2398  11.2398
  0: 
  0:           k =-0.0592 0.4709 0.2377 ( 52598 PWs)   bands (ev):
  0: 
  0:    -17.1644 -17.1644 -17.1644 -17.1644 -15.0192 -15.0192 -15.0187 -15.0187
  0:    -14.9968 -14.9968 -14.9960 -14.9960 -13.2806 -13.2806 -13.2803 -13.2803
  0:    -12.5422 -12.5422 -12.5317 -12.5317 -12.5033 -12.5033 -12.4929 -12.4929
  0:    -12.4135 -12.4135 -12.4125 -12.4125 -11.8968 -11.8968 -11.8961 -11.8961
  0:    -11.4798 -11.4798 -11.4792 -11.4792 -11.0937 -11.0937 -11.0813 -11.0813
  0:    -11.0144 -11.0144 -11.0017 -11.0017  -9.4063  -9.4063  -9.4062  -9.4062
  0:     -7.8292  -7.8292  -7.8291  -7.8291  -6.5484  -6.5484  -6.5481  -6.5481
  0:     -6.2946  -6.2946  -6.2943  -6.2943  -4.8870  -4.8870  -4.8855  -4.8855
  0:     -4.7537  -4.7537  -4.7524  -4.7524  -3.5776  -3.5776  -3.5728  -3.5728
  0:     -2.8719  -2.8719  -2.8680  -2.8680  -2.7383  -2.7383  -2.7340  -2.7340
  0:     -2.1527  -2.1527  -2.1511  -2.1511  -1.4553  -1.4553  -1.4465  -1.4465
  0:     -1.3761  -1.3761  -1.3656  -1.3656  -0.4787  -0.4787  -0.4628  -0.4628
  0:     -0.2437  -0.2437  -0.2092  -0.2092  -0.0640  -0.0640  -0.0461  -0.0461
  0:      0.4395   0.4395   0.5044   0.5044   0.5879   0.5879   0.7193   0.7193
  0:      0.7909   0.7909   0.8449   0.8449   0.8844   0.8844   0.9290   0.9290
  0:      1.0129   1.0129   1.0768   1.0768   1.1905   1.1905   1.2619   1.2619
  0:      1.3729   1.3729   1.4394   1.4394   1.7391   1.7391   1.7714   1.7714
  0:      5.1392   5.1392   5.2397   5.2397   6.0375   6.0375   6.1527   6.1527
  0:      6.5617   6.5617   6.6195   6.6195   6.8630   6.8630   6.9428   6.9428
  0:      7.8621   7.8621   7.8684   7.8684   8.5905   8.5905   8.6192   8.6192
  0:      8.7975   8.7975   8.8589   8.8589   9.2143   9.2143   9.2269   9.2269
  0:      9.4464   9.4464   9.4589   9.4589   9.6702   9.6702   9.7120   9.7120
  0:      9.9062   9.9062   9.9283   9.9283  10.0564  10.0564  10.0972  10.0972
  0:     10.3463  10.3463  10.3857  10.3857  10.4828  10.4828  10.5081  10.5081
  0:     10.7558  10.7558  10.7856  10.7856  11.2307  11.2307  11.2576  11.2576
  0: 
  0:           k =-0.0666 0.4709 0.2674 ( 52584 PWs)   bands (ev):
  0: 
  0:    -17.1644 -17.1644 -17.1644 -17.1644 -15.0192 -15.0192 -15.0187 -15.0187
  0:    -14.9968 -14.9968 -14.9960 -14.9960 -13.2806 -13.2806 -13.2804 -13.2804
  0:    -12.5423 -12.5423 -12.5318 -12.5318 -12.5033 -12.5033 -12.4929 -12.4929
  0:    -12.4135 -12.4135 -12.4125 -12.4125 -11.8964 -11.8964 -11.8956 -11.8956
  0:    -11.4797 -11.4797 -11.4790 -11.4790 -11.0956 -11.0956 -11.0834 -11.0834
  0:    -11.0133 -11.0133 -11.0008 -11.0008  -9.4062  -9.4062  -9.4062  -9.4062
  0:     -7.8283  -7.8283  -7.8282  -7.8282  -6.5483  -6.5483  -6.5480  -6.5480
  0:     -6.2943  -6.2943  -6.2940  -6.2940  -4.8860  -4.8860  -4.8844  -4.8844
  0:     -4.7530  -4.7530  -4.7517  -4.7517  -3.5770  -3.5770  -3.5724  -3.5724
  0:     -2.8717  -2.8717  -2.8676  -2.8676  -2.7390  -2.7390  -2.7345  -2.7345
  0:     -2.1543  -2.1543  -2.1527  -2.1527  -1.4585  -1.4585  -1.4495  -1.4495
  0:     -1.3803  -1.3803  -1.3700  -1.3700  -0.4790  -0.4790  -0.4623  -0.4623
  0:     -0.2442  -0.2442  -0.2090  -0.2090  -0.0617  -0.0617  -0.0432  -0.0432
  0:      0.4298   0.4298   0.4987   0.4987   0.5867   0.5867   0.7217   0.7217
  0:      0.7882   0.7882   0.8444   0.8444   0.8859   0.8859   0.9360   0.9360
  0:      1.0121   1.0121   1.0789   1.0789   1.1950   1.1950   1.2611   1.2611
  0:      1.3761   1.3761   1.4438   1.4438   1.7392   1.7392   1.7707   1.7707
  0:      5.1404   5.1404   5.2450   5.2450   6.0390   6.0390   6.1540   6.1540
  0:      6.5644   6.5644   6.6242   6.6242   6.8749   6.8749   6.9537   6.9537
  0:      7.8817   7.8817   7.8873   7.8873   8.5882   8.5882   8.6188   8.6188
  0:      8.7887   8.7887   8.8538   8.8538   9.2019   9.2019   9.2148   9.2148
  0:      9.4302   9.4302   9.4424   9.4424   9.6779   9.6779   9.7235   9.7235
  0:      9.8922   9.8922   9.9178   9.9178  10.0656  10.0656  10.1081  10.1081
  0:     10.3396  10.3396  10.3793  10.3793  10.4858  10.4858  10.5132  10.5132
  0:     10.7415  10.7415  10.7688  10.7688  11.2268  11.2268  11.2496  11.2496
  0: 
  0:           k =-0.0740 0.4709 0.2971 ( 52592 PWs)   bands (ev):
  0: 
  0:    -17.1644 -17.1644 -17.1643 -17.1643 -15.0192 -15.0192 -15.0187 -15.0187
  0:    -14.9968 -14.9968 -14.9960 -14.9960 -13.2806 -13.2806 -13.2804 -13.2804
  0:    -12.5423 -12.5423 -12.5320 -12.5320 -12.5033 -12.5033 -12.4929 -12.4929
  0:    -12.4135 -12.4135 -12.4125 -12.4125 -11.8959 -11.8959 -11.8952 -11.8952
  0:    -11.4795 -11.4795 -11.4788 -11.4788 -11.0975 -11.0975 -11.0856 -11.0856
  0:    -11.0122 -11.0122 -11.0001 -11.0001  -9.4062  -9.4062  -9.4061  -9.4061
  0:     -7.8273  -7.8273  -7.8272  -7.8272  -6.5481  -6.5481  -6.5478  -6.5478
  0:     -6.2940  -6.2940  -6.2937  -6.2937  -4.8851  -4.8851  -4.8834  -4.8834
  0:     -4.7523  -4.7523  -4.7509  -4.7509  -3.5766  -3.5766  -3.5721  -3.5721
  0:     -2.8712  -2.8712  -2.8671  -2.8671  -2.7397  -2.7397  -2.7351  -2.7351
  0:     -2.1560  -2.1560  -2.1544  -2.1544  -1.4627  -1.4627  -1.4537  -1.4537
  0:     -1.3836  -1.3836  -1.3736  -1.3736  -0.4787  -0.4787  -0.4614  -0.4614
  0:     -0.2444  -0.2444  -0.2086  -0.2086  -0.0595  -0.0595  -0.0408  -0.0408
  0:      0.4214   0.4214   0.4942   0.4942   0.5848   0.5848   0.7209   0.7209
  0:      0.7865   0.7865   0.8447   0.8447   0.8867   0.8867   0.9429   0.9429
  0:      1.0124   1.0124   1.0807   1.0807   1.1978   1.1978   1.2569   1.2569
  0:      1.3820   1.3820   1.4479   1.4479   1.7396   1.7396   1.7704   1.7704
  0:      5.1423   5.1423   5.2513   5.2513   6.0415   6.0415   6.1558   6.1558
  0:      6.5673   6.5673   6.6282   6.6282   6.8878   6.8878   6.9636   6.9636
  0:      7.9031   7.9031   7.9093   7.9093   8.5851   8.5851   8.6184   8.6184
  0:      8.7816   8.7816   8.8495   8.8495   9.1830   9.1830   9.1983   9.1983
  0:      9.4143   9.4143   9.4273   9.4273   9.6827   9.6827   9.7323   9.7323
  0:      9.8812   9.8812   9.9088   9.9088  10.0767  10.0767  10.1217  10.1217
  0:     10.3302  10.3302  10.3681  10.3681  10.4939  10.4939  10.5259  10.5259
  0:     10.7288  10.7288  10.7535  10.7535  11.2080  11.2080  11.2323  11.2323
  0: 
  0:           k =-0.0814 0.4709 0.3268 ( 52592 PWs)   bands (ev):
  0: 
  0:    -17.1643 -17.1643 -17.1643 -17.1643 -15.0192 -15.0192 -15.0187 -15.0187
  0:    -14.9968 -14.9968 -14.9960 -14.9960 -13.2806 -13.2806 -13.2804 -13.2804
  0:    -12.5424 -12.5424 -12.5321 -12.5321 -12.5033 -12.5033 -12.4930 -12.4930
  0:    -12.4135 -12.4135 -12.4125 -12.4125 -11.8956 -11.8956 -11.8949 -11.8949
  0:    -11.4790 -11.4790 -11.4783 -11.4783 -11.0993 -11.0993 -11.0878 -11.0878
  0:    -11.0114 -11.0114 -10.9996 -10.9996  -9.4061  -9.4061  -9.4061  -9.4061
  0:     -7.8263  -7.8263  -7.8262  -7.8262  -6.5478  -6.5478  -6.5475  -6.5475
  0:     -6.2937  -6.2937  -6.2933  -6.2933  -4.8841  -4.8841  -4.8824  -4.8824
  0:     -4.7516  -4.7516  -4.7502  -4.7502  -3.5763  -3.5763  -3.5719  -3.5719
  0:     -2.8707  -2.8707  -2.8665  -2.8665  -2.7404  -2.7404  -2.7359  -2.7359
  0:     -2.1577  -2.1577  -2.1560  -2.1560  -1.4679  -1.4679  -1.4589  -1.4589
  0:     -1.3858  -1.3858  -1.3761  -1.3761  -0.4776  -0.4776  -0.4600  -0.4600
  0:     -0.2445  -0.2445  -0.2082  -0.2082  -0.0573  -0.0573  -0.0388  -0.0388
  0:      0.4143   0.4143   0.4907   0.4907   0.5823   0.5823   0.7170   0.7170
  0:      0.7858   0.7858   0.8453   0.8453   0.8870   0.8870   0.9489   0.9489
  0:      1.0138   1.0138   1.0823   1.0823   1.1980   1.1980   1.2514   1.2514
  0:      1.3894   1.3894   1.4513   1.4513   1.7404   1.7404   1.7706   1.7706
  0:      5.1450   5.1450   5.2584   5.2584   6.0447   6.0447   6.1582   6.1582
  0:      6.5704   6.5704   6.6323   6.6323   6.9007   6.9007   6.9719   6.9719
  0:      7.9266   7.9266   7.9342   7.9342   8.5809   8.5809   8.6179   8.6179
  0:      8.7760   8.7760   8.8455   8.8455   9.1593   9.1593   9.1778   9.1778
  0:      9.4004   9.4004   9.4144   9.4144   9.6838   9.6838   9.7361   9.7361
  0:      9.8736   9.8736   9.9020   9.9020  10.0894  10.0894  10.1371  10.1371
  0:     10.3199  10.3199  10.3533  10.3533  10.5042  10.5042  10.5410  10.5410
  0:     10.7221  10.7221  10.7446  10.7446  11.1850  11.1850  11.2144  11.2144
  0: 
  0:           k =-0.0888 0.4709 0.3565 ( 52586 PWs)   bands (ev):
  0: 
  0:    -17.1643 -17.1643 -17.1643 -17.1643 -15.0192 -15.0192 -15.0187 -15.0187
  0:    -14.9968 -14.9968 -14.9960 -14.9960 -13.2806 -13.2806 -13.2804 -13.2804
  0:    -12.5424 -12.5424 -12.5322 -12.5322 -12.5033 -12.5033 -12.4930 -12.4930
  0:    -12.4135 -12.4135 -12.4125 -12.4125 -11.8953 -11.8953 -11.8946 -11.8946
  0:    -11.4784 -11.4784 -11.4776 -11.4776 -11.1011 -11.1011 -11.0899 -11.0899
  0:    -11.0107 -11.0107 -10.9994 -10.9994  -9.4061  -9.4061  -9.4060  -9.4060
  0:     -7.8252  -7.8252  -7.8251  -7.8251  -6.5473  -6.5473  -6.5470  -6.5470
  0:     -6.2934  -6.2934  -6.2930  -6.2930  -4.8832  -4.8832  -4.8815  -4.8815
  0:     -4.7509  -4.7509  -4.7495  -4.7495  -3.5762  -3.5762  -3.5718  -3.5718
  0:     -2.8700  -2.8700  -2.8658  -2.8658  -2.7411  -2.7411  -2.7367  -2.7367
  0:     -2.1592  -2.1592  -2.1575  -2.1575  -1.4739  -1.4739  -1.4651  -1.4651
  0:     -1.3872  -1.3872  -1.3777  -1.3777  -0.4757  -0.4757  -0.4581  -0.4581
  0:     -0.2445  -0.2445  -0.2076  -0.2076  -0.0547  -0.0547  -0.0368  -0.0368
  0:      0.4083   0.4083   0.4879   0.4879   0.5795   0.5795   0.7104   0.7104
  0:      0.7857   0.7857   0.8459   0.8459   0.8869   0.8869   0.9538   0.9538
  0:      1.0163   1.0163   1.0841   1.0841   1.1947   1.1947   1.2472   1.2472
  0:      1.3968   1.3968   1.4538   1.4538   1.7417   1.7417   1.7713   1.7713
  0:      5.1484   5.1484   5.2663   5.2663   6.0483   6.0483   6.1616   6.1616
  0:      6.5737   6.5737   6.6374   6.6374   6.9127   6.9127   6.9786   6.9786
  0:      7.9520   7.9520   7.9613   7.9613   8.5754   8.5754   8.6169   8.6169
  0:      8.7714   8.7714   8.8413   8.8413   9.1333   9.1333   9.1540   9.1540
  0:      9.3886   9.3886   9.4037   9.4037   9.6813   9.6813   9.7339   9.7339
  0:      9.8694   9.8694   9.8979   9.8979  10.1030  10.1030  10.1530  10.1530
  0:     10.3101  10.3101  10.3378  10.3378  10.5112  10.5112  10.5525  10.5525
  0:     10.7266  10.7266  10.7473  10.7473  11.1621  11.1621  11.1972  11.1972
  0: 
  0:           k =-0.0962 0.4709 0.3862 ( 52600 PWs)   bands (ev):
  0: 
  0:    -17.1643 -17.1643 -17.1643 -17.1643 -15.0192 -15.0192 -15.0187 -15.0187
  0:    -14.9968 -14.9968 -14.9960 -14.9960 -13.2806 -13.2806 -13.2804 -13.2804
  0:    -12.5424 -12.5424 -12.5324 -12.5324 -12.5032 -12.5032 -12.4931 -12.4931
  0:    -12.4135 -12.4135 -12.4124 -12.4124 -11.8950 -11.8950 -11.8944 -11.8944
  0:    -11.4776 -11.4776 -11.4768 -11.4768 -11.1027 -11.1027 -11.0921 -11.0921
  0:    -11.0102 -11.0102 -10.9994 -10.9994  -9.4061  -9.4061  -9.4060  -9.4060
  0:     -7.8242  -7.8242  -7.8241  -7.8241  -6.5467  -6.5467  -6.5464  -6.5464
  0:     -6.2931  -6.2931  -6.2927  -6.2927  -4.8824  -4.8824  -4.8807  -4.8807
  0:     -4.7503  -4.7503  -4.7489  -4.7489  -3.5762  -3.5762  -3.5720  -3.5720
  0:     -2.8691  -2.8691  -2.8650  -2.8650  -2.7418  -2.7418  -2.7375  -2.7375
  0:     -2.1605  -2.1605  -2.1589  -2.1589  -1.4806  -1.4806  -1.4718  -1.4718
  0:     -1.3879  -1.3879  -1.3785  -1.3785  -0.4730  -0.4730  -0.4557  -0.4557
  0:     -0.2445  -0.2445  -0.2068  -0.2068  -0.0518  -0.0518  -0.0347  -0.0347
  0:      0.4032   0.4032   0.4855   0.4855   0.5765   0.5765   0.7017   0.7017
  0:      0.7861   0.7861   0.8459   0.8459   0.8868   0.8868   0.9576   0.9576
  0:      1.0192   1.0192   1.0860   1.0860   1.1879   1.1879   1.2455   1.2455
  0:      1.4034   1.4034   1.4550   1.4550   1.7434   1.7434   1.7726   1.7726
  0:      5.1524   5.1524   5.2748   5.2748   6.0518   6.0518   6.1663   6.1663
  0:      6.5775   6.5775   6.6442   6.6442   6.9231   6.9231   6.9832   6.9832
  0:      7.9792   7.9792   7.9901   7.9901   8.5684   8.5684   8.6153   8.6153
  0:      8.7674   8.7674   8.8360   8.8360   9.1073   9.1073   9.1288   9.1288
  0:      9.3787   9.3787   9.3946   9.3946   9.6765   9.6765   9.7263   9.7263
  0:      9.8681   9.8681   9.8959   9.8959  10.1161  10.1161  10.1674  10.1674
  0:     10.3020  10.3020  10.3242  10.3242  10.5121  10.5121  10.5565  10.5565
  0:     10.7453  10.7453  10.7645  10.7645  11.1395  11.1395  11.1793  11.1793
  0: 
  0:           k =-0.1036 0.4709 0.4159 ( 52598 PWs)   bands (ev):
  0: 
  0:    -17.1643 -17.1643 -17.1643 -17.1643 -15.0192 -15.0192 -15.0187 -15.0187
  0:    -14.9968 -14.9968 -14.9960 -14.9960 -13.2807 -13.2807 -13.2805 -13.2805
  0:    -12.5424 -12.5424 -12.5325 -12.5325 -12.5032 -12.5032 -12.4931 -12.4931
  0:    -12.4135 -12.4135 -12.4124 -12.4124 -11.8949 -11.8949 -11.8942 -11.8942
  0:    -11.4765 -11.4765 -11.4757 -11.4757 -11.1043 -11.1043 -11.0942 -11.0942
  0:    -11.0099 -11.0099 -10.9997 -10.9997  -9.4060  -9.4060  -9.4060  -9.4060
  0:     -7.8232  -7.8232  -7.8230  -7.8230  -6.5459  -6.5459  -6.5456  -6.5456
  0:     -6.2928  -6.2928  -6.2925  -6.2925  -4.8816  -4.8816  -4.8800  -4.8800
  0:     -4.7498  -4.7498  -4.7485  -4.7485  -3.5765  -3.5765  -3.5723  -3.5723
  0:     -2.8682  -2.8682  -2.8642  -2.8642  -2.7425  -2.7425  -2.7384  -2.7384
  0:     -2.1615  -2.1615  -2.1599  -2.1599  -1.4875  -1.4875  -1.4788  -1.4788
  0:     -1.3883  -1.3883  -1.3788  -1.3788  -0.4696  -0.4696  -0.4528  -0.4528
  0:     -0.2446  -0.2446  -0.2057  -0.2057  -0.0484  -0.0484  -0.0321  -0.0321
  0:      0.3988   0.3988   0.4830   0.4830   0.5736   0.5736   0.6914   0.6914
  0:      0.7866   0.7866   0.8452   0.8452   0.8869   0.8869   0.9605   0.9605
  0:      1.0221   1.0221   1.0874   1.0874   1.1795   1.1795   1.2462   1.2462
  0:      1.4082   1.4082   1.4548   1.4548   1.7457   1.7457   1.7745   1.7745
  0:      5.1569   5.1569   5.2837   5.2837   6.0550   6.0550   6.1727   6.1727
  0:      6.5817   6.5817   6.6531   6.6531   6.9316   6.9316   6.9859   6.9859
  0:      8.0074   8.0074   8.0198   8.0198   8.5599   8.5599   8.6127   8.6127
  0:      8.7634   8.7634   8.8289   8.8289   9.0837   9.0837   9.1043   9.1043
  0:      9.3699   9.3699   9.3859   9.3859   9.6708   9.6708   9.7155   9.7155
  0:      9.8688   9.8688   9.8953   9.8953  10.1270  10.1270  10.1775  10.1775
  0:     10.2973  10.2973  10.3148  10.3148  10.5081  10.5081  10.5539  10.5539
  0:     10.7758  10.7758  10.7940  10.7940  11.1162  11.1162  11.1580  11.1580
  0: 
  0:           k =-0.1110 0.4709 0.4456 ( 52588 PWs)   bands (ev):
  0: 
  0:    -17.1643 -17.1643 -17.1643 -17.1643 -15.0192 -15.0192 -15.0187 -15.0187
  0:    -14.9968 -14.9968 -14.9960 -14.9960 -13.2807 -13.2807 -13.2805 -13.2805
  0:    -12.5424 -12.5424 -12.5326 -12.5326 -12.5031 -12.5031 -12.4931 -12.4931
  0:    -12.4135 -12.4135 -12.4124 -12.4124 -11.8948 -11.8948 -11.8942 -11.8942
  0:    -11.4752 -11.4752 -11.4743 -11.4743 -11.1058 -11.1058 -11.0963 -11.0963
  0:    -11.0098 -11.0098 -11.0003 -11.0003  -9.4060  -9.4060  -9.4059  -9.4059
  0:     -7.8222  -7.8222  -7.8220  -7.8220  -6.5450  -6.5450  -6.5447  -6.5447
  0:     -6.2926  -6.2926  -6.2922  -6.2922  -4.8808  -4.8808  -4.8793  -4.8793
  0:     -4.7495  -4.7495  -4.7482  -4.7482  -3.5769  -3.5769  -3.5728  -3.5728
  0:     -2.8672  -2.8672  -2.8634  -2.8634  -2.7431  -2.7431  -2.7393  -2.7393
  0:     -2.1622  -2.1622  -2.1607  -2.1607  -1.4945  -1.4945  -1.4859  -1.4859
  0:     -1.3884  -1.3884  -1.3787  -1.3787  -0.4656  -0.4656  -0.4493  -0.4493
  0:     -0.2448  -0.2448  -0.2044  -0.2044  -0.0448  -0.0448  -0.0285  -0.0285
  0:      0.3945   0.3945   0.4800   0.4800   0.5709   0.5709   0.6803   0.6803
  0:      0.7873   0.7873   0.8437   0.8437   0.8874   0.8874   0.9626   0.9626
  0:      1.0245   1.0245   1.0876   1.0876   1.1716   1.1716   1.2484   1.2484
  0:      1.4109   1.4109   1.4531   1.4531   1.7485   1.7485   1.7770   1.7770
  0:      5.1620   5.1620   5.2927   5.2927   6.0577   6.0577   6.1806   6.1806
  0:      6.5865   6.5865   6.6640   6.6640   6.9379   6.9379   6.9866   6.9866
  0:      8.0352   8.0352   8.0497   8.0497   8.5501   8.5501   8.6089   8.6089
  0:      8.7592   8.7592   8.8195   8.8195   9.0638   9.0638   9.0827   9.0827
  0:      9.3614   9.3614   9.3770   9.3770   9.6657   9.6657   9.7040   9.7040
  0:      9.8703   9.8703   9.8957   9.8957  10.1346  10.1346  10.1810  10.1810
  0:     10.2978  10.2978  10.3098  10.3098  10.5029  10.5029  10.5490  10.5490
  0:     10.8117  10.8117  10.8310  10.8310  11.0905  11.0905  11.1304  11.1304
  0: 
  0:           k =-0.1184 0.4709 0.4754 ( 52584 PWs)   bands (ev):
  0: 
  0:    -17.1643 -17.1643 -17.1642 -17.1642 -15.0192 -15.0192 -15.0187 -15.0187
  0:    -14.9968 -14.9968 -14.9960 -14.9960 -13.2807 -13.2807 -13.2805 -13.2805
  0:    -12.5425 -12.5425 -12.5327 -12.5327 -12.5031 -12.5031 -12.4932 -12.4932
  0:    -12.4135 -12.4135 -12.4124 -12.4124 -11.8948 -11.8948 -11.8942 -11.8942
  0:    -11.4737 -11.4737 -11.4728 -11.4728 -11.1073 -11.1073 -11.0983 -11.0983
  0:    -11.0099 -11.0099 -11.0010 -11.0010  -9.4060  -9.4060  -9.4059  -9.4059
  0:     -7.8212  -7.8212  -7.8211  -7.8211  -6.5440  -6.5440  -6.5437  -6.5437
  0:     -6.2924  -6.2924  -6.2920  -6.2920  -4.8801  -4.8801  -4.8786  -4.8786
  0:     -4.7494  -4.7494  -4.7482  -4.7482  -3.5774  -3.5774  -3.5734  -3.5734
  0:     -2.8662  -2.8662  -2.8625  -2.8625  -2.7436  -2.7436  -2.7401  -2.7401
  0:     -2.1626  -2.1626  -2.1611  -2.1611  -1.5014  -1.5014  -1.4929  -1.4929
  0:     -1.3884  -1.3884  -1.3784  -1.3784  -0.4611  -0.4611  -0.4453  -0.4453
  0:     -0.2450  -0.2450  -0.2029  -0.2029  -0.0410  -0.0410  -0.0235  -0.0235
  0:      0.3900   0.3900   0.4762   0.4762   0.5682   0.5682   0.6692   0.6692
  0:      0.7882   0.7882   0.8414   0.8414   0.8883   0.8883   0.9638   0.9638
  0:      1.0264   1.0264   1.0857   1.0857   1.1661   1.1661   1.2514   1.2514
  0:      1.4111   1.4111   1.4499   1.4499   1.7519   1.7519   1.7800   1.7800
  0:      5.1675   5.1675   5.3014   5.3014   6.0603   6.0603   6.1900   6.1900
  0:      6.5920   6.5920   6.6767   6.6767   6.9422   6.9422   6.9856   6.9856
  0:      8.0610   8.0610   8.0792   8.0792   8.5396   8.5396   8.6042   8.6042
  0:      8.7545   8.7545   8.8080   8.8080   9.0478   9.0478   9.0664   9.0664
  0:      9.3526   9.3526   9.3674   9.3674   9.6618   9.6618   9.6938   9.6938
  0:      9.8721   9.8721   9.8969   9.8969  10.1383  10.1383  10.1787  10.1787
  0:     10.3011  10.3011  10.3087  10.3087  10.5009  10.5009  10.5455  10.5455
  0:     10.8451  10.8451  10.8693  10.8693  11.0615  11.0615  11.0990  11.0990
  0: 
  0:           k =-0.1258 0.4709 0.5051 ( 52598 PWs)   bands (ev):
  0: 
  0:    -17.1642 -17.1642 -17.1642 -17.1642 -15.0192 -15.0192 -15.0187 -15.0187
  0:    -14.9968 -14.9968 -14.9960 -14.9960 -13.2807 -13.2807 -13.2805 -13.2805
  0:    -12.5425 -12.5425 -12.5329 -12.5329 -12.5030 -12.5030 -12.4932 -12.4932
  0:    -12.4135 -12.4135 -12.4125 -12.4125 -11.8949 -11.8949 -11.8943 -11.8943
  0:    -11.4719 -11.4719 -11.4711 -11.4711 -11.1086 -11.1086 -11.1003 -11.1003
  0:    -11.0102 -11.0102 -11.0019 -11.0019  -9.4060  -9.4060  -9.4059  -9.4059
  0:     -7.8203  -7.8203  -7.8202  -7.8202  -6.5429  -6.5429  -6.5426  -6.5426
  0:     -6.2922  -6.2922  -6.2918  -6.2918  -4.8794  -4.8794  -4.8780  -4.8780
  0:     -4.7495  -4.7495  -4.7483  -4.7483  -3.5782  -3.5782  -3.5742  -3.5742
  0:     -2.8652  -2.8652  -2.8617  -2.8617  -2.7441  -2.7441  -2.7409  -2.7409
  0:     -2.1626  -2.1626  -2.1612  -2.1612  -1.5079  -1.5079  -1.4995  -1.4995
  0:     -1.3884  -1.3884  -1.3781  -1.3781  -0.4561  -0.4561  -0.4408  -0.4408
  0:     -0.2452  -0.2452  -0.2012  -0.2012  -0.0372  -0.0372  -0.0169  -0.0169
  0:      0.3847   0.3847   0.4715   0.4715   0.5653   0.5653   0.6592   0.6592
  0:      0.7893   0.7893   0.8384   0.8384   0.8898   0.8898   0.9643   0.9643
  0:      1.0275   1.0275   1.0818   1.0818   1.1638   1.1638   1.2547   1.2547
  0:      1.4086   1.4086   1.4455   1.4455   1.7557   1.7557   1.7832   1.7832
  0:      5.1735   5.1735   5.3095   5.3095   6.0630   6.0630   6.2002   6.2002
  0:      6.5982   6.5982   6.6907   6.6907   6.9441   6.9441   6.9834   6.9834
  0:      8.0829   8.0829   8.1070   8.1070   8.5289   8.5289   8.5993   8.5993
  0:      8.7491   8.7491   8.7952   8.7952   9.0351   9.0351   9.0569   9.0569
  0:      9.3432   9.3432   9.3570   9.3570   9.6592   9.6592   9.6859   9.6859
  0:      9.8742   9.8742   9.8993   9.8993  10.1380  10.1380  10.1734  10.1734
  0:     10.3001  10.3001  10.3124  10.3124  10.5054  10.5054  10.5460  10.5460
  0:     10.8668  10.8668  10.8988  10.8988  11.0331  11.0331  11.0738  11.0738
  0: 
  0:           k =-0.1332 0.4709 0.5348 ( 52600 PWs)   bands (ev):
  0: 
  0:    -17.1642 -17.1642 -17.1642 -17.1642 -15.0192 -15.0192 -15.0187 -15.0187
  0:    -14.9968 -14.9968 -14.9960 -14.9960 -13.2807 -13.2807 -13.2806 -13.2806
  0:    -12.5425 -12.5425 -12.5330 -12.5330 -12.5030 -12.5030 -12.4932 -12.4932
  0:    -12.4135 -12.4135 -12.4125 -12.4125 -11.8951 -11.8951 -11.8944 -11.8944
  0:    -11.4701 -11.4701 -11.4692 -11.4692 -11.1099 -11.1099 -11.1022 -11.1022
  0:    -11.0106 -11.0106 -11.0030 -11.0030  -9.4060  -9.4060  -9.4059  -9.4059
  0:     -7.8195  -7.8195  -7.8194  -7.8194  -6.5417  -6.5417  -6.5415  -6.5415
  0:     -6.2920  -6.2920  -6.2916  -6.2916  -4.8786  -4.8786  -4.8773  -4.8773
  0:     -4.7499  -4.7499  -4.7487  -4.7487  -3.5790  -3.5790  -3.5751  -3.5751
  0:     -2.8641  -2.8641  -2.8609  -2.8609  -2.7445  -2.7445  -2.7416  -2.7416
  0:     -2.1623  -2.1623  -2.1609  -2.1609  -1.5139  -1.5139  -1.5058  -1.5058
  0:     -1.3884  -1.3884  -1.3779  -1.3779  -0.4510  -0.4510  -0.4361  -0.4361
  0:     -0.2451  -0.2451  -0.1996  -0.1996  -0.0330  -0.0330  -0.0091  -0.0091
  0:      0.3783   0.3783   0.4658   0.4658   0.5616   0.5616   0.6516   0.6516
  0:      0.7906   0.7906   0.8348   0.8348   0.8917   0.8917   0.9642   0.9642
  0:      1.0274   1.0274   1.0768   1.0768   1.1642   1.1642   1.2580   1.2580
  0:      1.4034   1.4034   1.4402   1.4402   1.7600   1.7600   1.7866   1.7866
  0:      5.1801   5.1801   5.3166   5.3166   6.0664   6.0664   6.2106   6.2106
  0:      6.6052   6.6052   6.7053   6.7053   6.9438   6.9438   6.9806   6.9806
  0:      8.0997   8.0997   8.1315   8.1315   8.5194   8.5194   8.5950   8.5950
  0:      8.7432   8.7432   8.7824   8.7824   9.0253   9.0253   9.0540   9.0540
  0:      9.3336   9.3336   9.3467   9.3467   9.6578   9.6578   9.6807   9.6807
  0:      9.8770   9.8770   9.9032   9.9032  10.1344  10.1344  10.1668  10.1668
  0:     10.2958  10.2958  10.3156  10.3156  10.5177  10.5177  10.5523  10.5523
  0:     10.8670  10.8670  10.9015  10.9015  11.0201  11.0201  11.0649  11.0649
  0: 
  0:           k =-0.1406 0.4709 0.5645 ( 52630 PWs)   bands (ev):
  0: 
  0:    -17.1642 -17.1642 -17.1642 -17.1642 -15.0192 -15.0192 -15.0187 -15.0187
  0:    -14.9968 -14.9968 -14.9960 -14.9960 -13.2807 -13.2807 -13.2806 -13.2806
  0:    -12.5425 -12.5425 -12.5330 -12.5330 -12.5029 -12.5029 -12.4933 -12.4933
  0:    -12.4135 -12.4135 -12.4125 -12.4125 -11.8953 -11.8953 -11.8947 -11.8947
  0:    -11.4681 -11.4681 -11.4673 -11.4673 -11.1110 -11.1110 -11.1040 -11.1040
  0:    -11.0111 -11.0111 -11.0041 -11.0041  -9.4060  -9.4060  -9.4059  -9.4059
  0:     -7.8187  -7.8187  -7.8186  -7.8186  -6.5405  -6.5405  -6.5403  -6.5403
  0:     -6.2918  -6.2918  -6.2914  -6.2914  -4.8779  -4.8779  -4.8767  -4.8767
  0:     -4.7504  -4.7504  -4.7494  -4.7494  -3.5799  -3.5799  -3.5760  -3.5760
  0:     -2.8632  -2.8632  -2.8601  -2.8601  -2.7448  -2.7448  -2.7422  -2.7422
  0:     -2.1617  -2.1617  -2.1603  -2.1603  -1.5194  -1.5194  -1.5115  -1.5115
  0:     -1.3884  -1.3884  -1.3778  -1.3778  -0.4457  -0.4457  -0.4313  -0.4313
  0:     -0.2447  -0.2447  -0.1982  -0.1982  -0.0282  -0.0282  -0.0003  -0.0003
  0:      0.3708   0.3708   0.4590   0.4590   0.5573   0.5573   0.6471   0.6471
  0:      0.7921   0.7921   0.8306   0.8306   0.8941   0.8941   0.9635   0.9635
  0:      1.0259   1.0259   1.0724   1.0724   1.1664   1.1664   1.2609   1.2609
  0:      1.3959   1.3959   1.4340   1.4340   1.7646   1.7646   1.7901   1.7901
  0:      5.1874   5.1874   5.3223   5.3223   6.0711   6.0711   6.2206   6.2206
  0:      6.6128   6.6128   6.7196   6.7196   6.9413   6.9413   6.9779   6.9779
  0:      8.1107   8.1107   8.1507   8.1507   8.5122   8.5122   8.5924   8.5924
  0:      8.7368   8.7368   8.7709   8.7709   9.0188   9.0188   9.0558   9.0558
  0:      9.3243   9.3243   9.3376   9.3376   9.6572   9.6572   9.6775   9.6775
  0:      9.8809   9.8809   9.9084   9.9084  10.1280  10.1280  10.1590  10.1590
  0:     10.2906  10.2906  10.3156  10.3156  10.5367  10.5367  10.5649  10.5649
  0:     10.8443  10.8443  10.8722  10.8722  11.0281  11.0281  11.0716  11.0716
  0: 
  0:           k =-0.1480 0.4709 0.5942 ( 52610 PWs)   bands (ev):
  0: 
  0:    -17.1642 -17.1642 -17.1642 -17.1642 -15.0192 -15.0192 -15.0187 -15.0187
  0:    -14.9968 -14.9968 -14.9960 -14.9960 -13.2807 -13.2807 -13.2806 -13.2806
  0:    -12.5424 -12.5424 -12.5331 -12.5331 -12.5028 -12.5028 -12.4933 -12.4933
  0:    -12.4135 -12.4135 -12.4125 -12.4125 -11.8956 -11.8956 -11.8950 -11.8950
  0:    -11.4661 -11.4661 -11.4653 -11.4653 -11.1121 -11.1121 -11.1057 -11.1057
  0:    -11.0118 -11.0118 -11.0053 -11.0053  -9.4061  -9.4061  -9.4060  -9.4060
  0:     -7.8181  -7.8181  -7.8180  -7.8180  -6.5394  -6.5394  -6.5391  -6.5391
  0:     -6.2917  -6.2917  -6.2913  -6.2913  -4.8772  -4.8772  -4.8760  -4.8760
  0:     -4.7512  -4.7512  -4.7502  -4.7502  -3.5808  -3.5808  -3.5770  -3.5770
  0:     -2.8623  -2.8623  -2.8594  -2.8594  -2.7449  -2.7449  -2.7426  -2.7426
  0:     -2.1608  -2.1608  -2.1594  -2.1594  -1.5242  -1.5242  -1.5167  -1.5167
  0:     -1.3884  -1.3884  -1.3779  -1.3779  -0.4404  -0.4404  -0.4266  -0.4266
  0:     -0.2438  -0.2438  -0.1974  -0.1974  -0.0227  -0.0227   0.0089   0.0089
  0:      0.3624   0.3624   0.4507   0.4507   0.5532   0.5532   0.6455   0.6455
  0:      0.7936   0.7936   0.8260   0.8260   0.8968   0.8968   0.9626   0.9626
  0:      1.0228   1.0228   1.0699   1.0699   1.1693   1.1693   1.2629   1.2629
  0:      1.3867   1.3867   1.4271   1.4271   1.7693   1.7693   1.7933   1.7933
  0:      5.1954   5.1954   5.3263   5.3263   6.0774   6.0774   6.2293   6.2293
  0:      6.6209   6.6209   6.7327   6.7327   6.9372   6.9372   6.9753   6.9753
  0:      8.1157   8.1157   8.1632   8.1632   8.5085   8.5085   8.5919   8.5919
  0:      8.7302   8.7302   8.7617   8.7617   9.0154   9.0154   9.0605   9.0605
  0:      9.3164   9.3164   9.3312   9.3312   9.6571   9.6571   9.6757   9.6757
  0:      9.8860   9.8860   9.9142   9.9142  10.1197  10.1197  10.1493  10.1493
  0:     10.2862  10.2862  10.3135  10.3135  10.5588  10.5588  10.5828  10.5828
  0:     10.8076  10.8076  10.8308  10.8308  11.0389  11.0389  11.0836  11.0836
  0: 
  0:           k =-0.1480 0.4473 0.5942 ( 52609 PWs)   bands (ev):
  0: 
  0:    -17.1644 -17.1644 -17.1640 -17.1640 -15.0195 -15.0190 -15.0189 -15.0184
  0:    -14.9970 -14.9965 -14.9963 -14.9958 -13.2820 -13.2819 -13.2794 -13.2793
  0:    -12.5443 -12.5406 -12.5353 -12.5309 -12.5058 -12.4998 -12.4963 -12.4903
  0:    -12.4141 -12.4131 -12.4129 -12.4120 -11.8981 -11.8975 -11.8929 -11.8924
  0:    -11.4754 -11.4747 -11.4563 -11.4556 -11.1178 -11.1126 -11.1053 -11.1004
  0:    -11.0195 -11.0140 -11.0031 -10.9979  -9.4096  -9.4095  -9.4026  -9.4025
  0:     -7.8207  -7.8206  -7.8154  -7.8152  -6.5401  -6.5399  -6.5386  -6.5384
  0:     -6.2921  -6.2917  -6.2912  -6.2909  -4.8806  -4.8799  -4.8739  -4.8732
  0:     -4.7538  -4.7535  -4.7474  -4.7472  -3.5828  -3.5804  -3.5768  -3.5742
  0:     -2.8751  -2.8730  -2.8496  -2.8457  -2.7475  -2.7458  -2.7422  -2.7391
  0:     -2.1619  -2.1611  -2.1588  -2.1580  -1.5348  -1.5311  -1.5105  -1.5072
  0:     -1.3918  -1.3858  -1.3793  -1.3757  -0.4654  -0.4568  -0.4151  -0.3989
  0:     -0.2507  -0.2391  -0.2050  -0.1886  -0.0264  -0.0169   0.0054   0.0145
  0:      0.3607   0.3635   0.4469   0.4544   0.5482   0.5580   0.6432   0.6484
  0:      0.7848   0.8005   0.8223   0.8305   0.8906   0.9033   0.9594   0.9659
  0:      1.0154   1.0270   1.0673   1.0756   1.1597   1.1792   1.2565   1.2686
  0:      1.3842   1.3887   1.4197   1.4354   1.7632   1.7724   1.7889   1.7990
  0:      5.1812   5.2044   5.3186   5.3404   6.0701   6.0830   6.2204   6.2412
  0:      6.6174   6.6256   6.7264   6.7413   6.9296   6.9445   6.9618   6.9900
  0:      8.1078   8.1247   8.1551   8.1723   8.4962   8.5191   8.5828   8.5994
  0:      8.7279   8.7321   8.7575   8.7650   9.0043   9.0266   9.0495   9.0722
  0:      9.3067   9.3127   9.3322   9.3430   9.6496   9.6626   9.6687   9.6826
  0:      9.8784   9.8881   9.9100   9.9274  10.1125  10.1278  10.1408  10.1600
  0:     10.2705  10.2928  10.3093  10.3277  10.5427  10.5615  10.5682  10.5965
  0:     10.7842  10.8023  10.8377  10.8572  11.0171  11.0383  11.0898  11.0983
  0: 
  0:           k =-0.1480 0.4238 0.5942 ( 52605 PWs)   bands (ev):
  0: 
  0:    -17.1646 -17.1646 -17.1639 -17.1639 -15.0198 -15.0193 -15.0187 -15.0182
  0:    -14.9972 -14.9966 -14.9963 -14.9955 -13.2833 -13.2832 -13.2781 -13.2780
  0:    -12.5462 -12.5388 -12.5375 -12.5288 -12.5087 -12.4992 -12.4966 -12.4872
  0:    -12.4147 -12.4136 -12.4125 -12.4115 -11.9005 -11.8999 -11.8901 -11.8896
  0:    -11.4844 -11.4837 -11.4464 -11.4456 -11.1241 -11.1184 -11.1001 -11.0952
  0:    -11.0277 -11.0219 -10.9955 -10.9904  -9.4133  -9.4132  -9.3993  -9.3992
  0:     -7.8233  -7.8232  -7.8126  -7.8124  -6.5408  -6.5406  -6.5379  -6.5377
  0:     -6.2925  -6.2921  -6.2908  -6.2905  -4.8846  -4.8839  -4.8714  -4.8707
  0:     -4.7561  -4.7558  -4.7436  -4.7435  -3.5844  -3.5818  -3.5735  -3.5706
  0:     -2.8881  -2.8863  -2.8374  -2.8320  -2.7500  -2.7486  -2.7395  -2.7353
  0:     -2.1628  -2.1619  -2.1570  -2.1561  -1.5473  -1.5435  -1.5008  -1.4978
  0:     -1.3952  -1.3855  -1.3781  -1.3731  -0.4918  -0.4855  -0.3930  -0.3724
  0:     -0.2584  -0.2378  -0.2097  -0.1800  -0.0277  -0.0098   0.0054   0.0220
  0:      0.3585   0.3639   0.4432   0.4576   0.5431   0.5624   0.6417   0.6517
  0:      0.7759   0.8027   0.8201   0.8363   0.8858   0.9087   0.9567   0.9689
  0:      1.0058   1.0278   1.0685   1.0824   1.1505   1.1893   1.2496   1.2730
  0:      1.3813   1.3892   1.4146   1.4438   1.7560   1.7699   1.7887   1.8043
  0:      5.1644   5.2056   5.3195   5.3581   6.0618   6.0859   6.2154   6.2552
  0:      6.6151   6.6310   6.7230   6.7516   6.9218   6.9443   6.9574   7.0049
  0:      8.1009   8.1339   8.1490   8.1823   8.4824   8.5272   8.5725   8.6052
  0:      8.7251   8.7331   8.7529   8.7673   8.9950   9.0311   9.0458   9.0831
  0:      9.2955   9.3009   9.3413   9.3551   9.6420   9.6582   9.6694   9.6877
  0:      9.8698   9.8837   9.9170   9.9432  10.1088  10.1285  10.1431  10.1699
  0:     10.2555  10.2809  10.3239  10.3424  10.5196  10.5390  10.5678  10.6021
  0:     10.7583  10.7853  10.8614  10.8886  10.9929  11.0202  11.1065  11.1131
  0: 
  0:           k =-0.1480 0.4002 0.5942 ( 52587 PWs)   bands (ev):
  0: 
  0:    -17.1647 -17.1647 -17.1637 -17.1637 -15.0200 -15.0195 -15.0184 -15.0179
  0:    -14.9975 -14.9969 -14.9961 -14.9953 -13.2846 -13.2845 -13.2768 -13.2767
  0:    -12.5480 -12.5399 -12.5368 -12.5268 -12.5114 -12.5020 -12.4934 -12.4842
  0:    -12.4153 -12.4142 -12.4120 -12.4111 -11.9027 -11.9022 -11.8872 -11.8868
  0:    -11.4931 -11.4923 -11.4362 -11.4354 -11.1305 -11.1245 -11.0953 -11.0904
  0:    -11.0358 -11.0298 -10.9881 -10.9831  -9.4171  -9.4170  -9.3962  -9.3961
  0:     -7.8258  -7.8257  -7.8098  -7.8096  -6.5416  -6.5414  -6.5373  -6.5370
  0:     -6.2929  -6.2925  -6.2905  -6.2901  -4.8890  -4.8883  -4.8696  -4.8687
  0:     -4.7578  -4.7574  -4.7396  -4.7394  -3.5853  -3.5828  -3.5694  -3.5663
  0:     -2.9011  -2.8993  -2.8257  -2.8185  -2.7523  -2.7510  -2.7367  -2.7310
  0:     -2.1633  -2.1623  -2.1548  -2.1539  -1.5601  -1.5562  -1.4927  -1.4901
  0:     -1.3984  -1.3872  -1.3748  -1.3704  -0.5188  -0.5137  -0.3740  -0.3492
  0:     -0.2657  -0.2399  -0.2102  -0.1722  -0.0267  -0.0038   0.0107   0.0315
  0:      0.3561   0.3637   0.4399   0.4602   0.5379   0.5663   0.6409   0.6550
  0:      0.7680   0.7997   0.8190   0.8433   0.8832   0.9116   0.9551   0.9713
  0:      0.9951   1.0270   1.0721   1.0892   1.1420   1.1994   1.2428   1.2760
  0:      1.3776   1.3876   1.4134   1.4521   1.7483   1.7631   1.7912   1.8087
  0:      5.1467   5.1993   5.3287   5.3779   6.0531   6.0856   6.2150   6.2708
  0:      6.6140   6.6370   6.7227   6.7632   6.9133   6.9350   6.9652   7.0193
  0:      8.0951   8.1365   8.1516   8.1932   8.4677   8.5315   8.5625   8.6089
  0:      8.7217   8.7322   8.7490   8.7686   8.9884   9.0237   9.0547   9.0927
  0:      9.2843   9.2899   9.3496   9.3655   9.6352   9.6507   9.6716   9.6901
  0:      9.8615   9.8795   9.9272   9.9589  10.1097  10.1265  10.1516  10.1765
  0:     10.2434  10.2678  10.3390  10.3558  10.4933  10.5143  10.5623  10.5997
  0:     10.7340  10.7687  10.8864  10.9189  10.9725  11.0005  11.1012  11.1217
  0: 
  0:           k =-0.1480 0.3767 0.5942 ( 52600 PWs)   bands (ev):
  0: 
  0:    -17.1649 -17.1649 -17.1635 -17.1635 -15.0203 -15.0198 -15.0181 -15.0177
  0:    -14.9977 -14.9971 -14.9958 -14.9950 -13.2858 -13.2857 -13.2755 -13.2754
  0:    -12.5498 -12.5421 -12.5350 -12.5248 -12.5140 -12.5046 -12.4901 -12.4812
  0:    -12.4159 -12.4148 -12.4116 -12.4107 -11.9049 -11.9043 -11.8843 -11.8838
  0:    -11.5013 -11.5006 -11.4259 -11.4249 -11.1370 -11.1306 -11.0913 -11.0863
  0:    -11.0435 -11.0374 -10.9810 -10.9761  -9.4209  -9.4208  -9.3932  -9.3931
  0:     -7.8282  -7.8281  -7.8069  -7.8068  -6.5423  -6.5421  -6.5366  -6.5364
  0:     -6.2933  -6.2930  -6.2901  -6.2897  -4.8937  -4.8930  -4.8683  -4.8674
  0:     -4.7589  -4.7583  -4.7353  -4.7351  -3.5857  -3.5833  -3.5646  -3.5615
  0:     -2.9139  -2.9117  -2.8149  -2.8054  -2.7544  -2.7530  -2.7338  -2.7263
  0:     -2.1635  -2.1624  -2.1524  -2.1514  -1.5728  -1.5689  -1.4867  -1.4847
  0:     -1.4014  -1.3895  -1.3707  -1.3671  -0.5459  -0.5407  -0.3596  -0.3315
  0:     -0.2714  -0.2428  -0.2070  -0.1657  -0.0235   0.0011   0.0207   0.0436
  0:      0.3535   0.3629   0.4371   0.4621   0.5325   0.5693   0.6408   0.6580
  0:      0.7618   0.7943   0.8173   0.8505   0.8827   0.9114   0.9547   0.9721
  0:      0.9853   1.0269   1.0761   1.0952   1.1345   1.2092   1.2366   1.2775
  0:      1.3720   1.3854   1.4156   1.4600   1.7402   1.7550   1.7938   1.8119
  0:      5.1290   5.1882   5.3435   5.3989   6.0442   6.0821   6.2192   6.2875
  0:      6.6140   6.6432   6.7259   6.7754   6.9037   6.9277   6.9746   7.0332
  0:      8.0903   8.1318   8.1636   8.2050   8.4522   8.5287   8.5556   8.6107
  0:      8.7173   8.7281   8.7469   8.7693   8.9851   9.0160   9.0651   9.1006
  0:      9.2738   9.2806   9.3561   9.3735   9.6302   9.6441   9.6719   9.6895
  0:      9.8545   9.8766   9.9372   9.9726  10.1148  10.1285  10.1595  10.1774
  0:     10.2364  10.2564  10.3493  10.3653  10.4694  10.4911  10.5532  10.5912
  0:     10.7119  10.7516  10.9086  10.9356  10.9660  10.9838  11.0803  11.1105
  0: 
  0:           k =-0.1480 0.3531 0.5942 ( 52584 PWs)   bands (ev):
  0: 
  0:    -17.1651 -17.1651 -17.1634 -17.1634 -15.0206 -15.0201 -15.0179 -15.0174
  0:    -14.9979 -14.9974 -14.9956 -14.9948 -13.2870 -13.2869 -13.2743 -13.2742
  0:    -12.5516 -12.5443 -12.5333 -12.5230 -12.5164 -12.5071 -12.4869 -12.4782
  0:    -12.4165 -12.4154 -12.4112 -12.4103 -11.9069 -11.9063 -11.8812 -11.8808
  0:    -11.5091 -11.5084 -11.4154 -11.4143 -11.1435 -11.1367 -11.0886 -11.0834
  0:    -11.0504 -11.0442 -10.9742 -10.9695  -9.4247  -9.4247  -9.3905  -9.3904
  0:     -7.8305  -7.8304  -7.8041  -7.8040  -6.5431  -6.5429  -6.5360  -6.5358
  0:     -6.2938  -6.2934  -6.2897  -6.2893  -4.8986  -4.8979  -4.8677  -4.8667
  0:     -4.7593  -4.7586  -4.7309  -4.7307  -3.5855  -3.5832  -3.5592  -3.5561
  0:     -2.9264  -2.9238  -2.8050  -2.7931  -2.7560  -2.7546  -2.7308  -2.7211
  0:     -2.1634  -2.1621  -2.1497  -2.1486  -1.5851  -1.5813  -1.4832  -1.4815
  0:     -1.4044  -1.3922  -1.3660  -1.3631  -0.5726  -0.5668  -0.3515  -0.3204
  0:     -0.2753  -0.2438  -0.2001  -0.1606  -0.0180   0.0068   0.0321   0.0591
  0:      0.3509   0.3616   0.4350   0.4634   0.5272   0.5712   0.6409   0.6609
  0:      0.7575   0.7883   0.8148   0.8568   0.8837   0.9092   0.9538   0.9675
  0:      0.9818   1.0284   1.0794   1.0997   1.1285   1.2182   1.2318   1.2776
  0:      1.3647   1.3840   1.4196   1.4673   1.7321   1.7466   1.7955   1.8139
  0:      5.1119   5.1748   5.3610   5.4204   6.0356   6.0762   6.2274   6.3050
  0:      6.6149   6.6494   6.7325   6.7875   6.8937   6.9232   6.9847   7.0460
  0:      8.0864   8.1266   8.1782   8.2176   8.4361   8.5176   8.5529   8.6104
  0:      8.7115   8.7211   8.7466   8.7701   8.9854   9.0105   9.0747   9.1069
  0:      9.2644   9.2727   9.3608   9.3788   9.6273   9.6388   9.6703   9.6859
  0:      9.8492   9.8743   9.9462   9.9835  10.1211  10.1322  10.1661  10.1743
  0:     10.2341  10.2493  10.3495  10.3666  10.4530  10.4750  10.5435  10.5801
  0:     10.6919  10.7338  10.9158  10.9294  10.9711  10.9877  11.0565  11.0896
  0: 
  0:           k =-0.1480 0.3296 0.5942 ( 52581 PWs)   bands (ev):
  0: 
  0:    -17.1653 -17.1653 -17.1632 -17.1632 -15.0208 -15.0204 -15.0176 -15.0172
  0:    -14.9981 -14.9976 -14.9954 -14.9945 -13.2882 -13.2881 -13.2730 -13.2730
  0:    -12.5532 -12.5465 -12.5318 -12.5215 -12.5185 -12.5094 -12.4836 -12.4753
  0:    -12.4172 -12.4161 -12.4109 -12.4100 -11.9088 -11.9082 -11.8781 -11.8777
  0:    -11.5165 -11.5157 -11.4049 -11.4036 -11.1500 -11.1427 -11.0882 -11.0826
  0:    -11.0554 -11.0495 -10.9677 -10.9632  -9.4286  -9.4285  -9.3879  -9.3878
  0:     -7.8326  -7.8325  -7.8014  -7.8012  -6.5438  -6.5436  -6.5355  -6.5352
  0:     -6.2942  -6.2937  -6.2894  -6.2890  -4.9037  -4.9029  -4.8675  -4.8665
  0:     -4.7591  -4.7583  -4.7265  -4.7263  -3.5847  -3.5826  -3.5534  -3.5503
  0:     -2.9384  -2.9354  -2.7965  -2.7822  -2.7570  -2.7552  -2.7278  -2.7154
  0:     -2.1629  -2.1614  -2.1468  -2.1457  -1.5968  -1.5930  -1.4820  -1.4805
  0:     -1.4077  -1.3957  -1.3607  -1.3581  -0.5983  -0.5920  -0.3501  -0.3153
  0:     -0.2776  -0.2434  -0.1892  -0.1567  -0.0107   0.0140   0.0436   0.0777
  0:      0.3485   0.3599   0.4333   0.4641   0.5222   0.5719   0.6406   0.6639
  0:      0.7542   0.7830   0.8121   0.8610   0.8848   0.9069   0.9488   0.9621
  0:      0.9832   1.0315   1.0811   1.1020   1.1250   1.2236   1.2307   1.2765
  0:      1.3568   1.3832   1.4244   1.4739   1.7243   1.7383   1.7962   1.8144
  0:      5.0957   5.1605   5.3798   5.4419   6.0274   6.0686   6.2388   6.3229
  0:      6.6168   6.6554   6.7421   6.7985   6.8848   6.9212   6.9950   7.0577
  0:      8.0834   8.1217   8.1944   8.2311   8.4197   8.5020   8.5509   8.6081
  0:      8.7040   8.7124   8.7475   8.7716   8.9889   9.0078   9.0834   9.1119
  0:      9.2562   9.2657   9.3638   9.3818   9.6266   9.6347   9.6671   9.6795
  0:      9.8455   9.8721   9.9539   9.9912  10.1220  10.1305  10.1722  10.1757
  0:     10.2337  10.2491  10.3383  10.3573  10.4433  10.4694  10.5372  10.5712
  0:     10.6742  10.7156  10.9027  10.9160  10.9800  11.0001  11.0393  11.0710
  0: 
  0:           k =-0.1480 0.3061 0.5942 ( 52592 PWs)   bands (ev):
  0: 
  0:    -17.1654 -17.1654 -17.1631 -17.1631 -15.0210 -15.0206 -15.0174 -15.0170
  0:    -14.9983 -14.9979 -14.9951 -14.9943 -13.2893 -13.2892 -13.2719 -13.2718
  0:    -12.5548 -12.5486 -12.5305 -12.5217 -12.5187 -12.5114 -12.4804 -12.4724
  0:    -12.4178 -12.4167 -12.4106 -12.4097 -11.9105 -11.9100 -11.8749 -11.8745
  0:    -11.5234 -11.5226 -11.3942 -11.3928 -11.1564 -11.1486 -11.0910 -11.0848
  0:    -11.0575 -11.0523 -10.9616 -10.9573  -9.4324  -9.4323  -9.3854  -9.3854
  0:     -7.8346  -7.8345  -7.7987  -7.7985  -6.5446  -6.5443  -6.5350  -6.5347
  0:     -6.2946  -6.2941  -6.2891  -6.2886  -4.9088  -4.9080  -4.8678  -4.8667
  0:     -4.7583  -4.7574  -4.7222  -4.7220  -3.5835  -3.5815  -3.5472  -3.5441
  0:     -2.9498  -2.9464  -2.7897  -2.7743  -2.7572  -2.7536  -2.7245  -2.7091
  0:     -2.1620  -2.1603  -2.1438  -2.1425  -1.6077  -1.6040  -1.4829  -1.4812
  0:     -1.4117  -1.4001  -1.3547  -1.3523  -0.6228  -0.6162  -0.3536  -0.3155
  0:     -0.2778  -0.2431  -0.1759  -0.1534  -0.0019   0.0225   0.0556   0.0989
  0:      0.3463   0.3578   0.4320   0.4644   0.5179   0.5715   0.6396   0.6674
  0:      0.7511   0.7791   0.8102   0.8624   0.8855   0.9059   0.9396   0.9600
  0:      0.9856   1.0356   1.0813   1.1018   1.1243   1.2228   1.2356   1.2745
  0:      1.3491   1.3828   1.4294   1.4797   1.7169   1.7304   1.7956   1.8136
  0:      5.0808   5.1462   5.3988   5.4630   6.0198   6.0603   6.2526   6.3409
  0:      6.6196   6.6612   6.7542   6.8075   6.8781   6.9215   7.0053   7.0679
  0:      8.0812   8.1172   8.2119   8.2452   8.4032   8.4840   8.5474   8.6039
  0:      8.6950   8.7031   8.7493   8.7741   8.9946   9.0081   9.0915   9.1160
  0:      9.2486   9.2592   9.3657   9.3831   9.6268   9.6318   9.6623   9.6713
  0:      9.8433   9.8701   9.9601   9.9961  10.1107  10.1229  10.1759  10.1851
  0:     10.2355  10.2530  10.3233  10.3419  10.4369  10.4672  10.5383  10.5681
  0:     10.6595  10.6978  10.8845  10.8958  10.9912  10.9970  11.0342  11.0618
  0: 
  0:           k =-0.1480 0.2825 0.5942 ( 52593 PWs)   bands (ev):
  0: 
  0:    -17.1656 -17.1656 -17.1629 -17.1629 -15.0213 -15.0209 -15.0172 -15.0168
  0:    -14.9984 -14.9981 -14.9949 -14.9941 -13.2904 -13.2903 -13.2708 -13.2707
  0:    -12.5564 -12.5506 -12.5294 -12.5234 -12.5174 -12.5129 -12.4772 -12.4697
  0:    -12.4185 -12.4173 -12.4103 -12.4095 -11.9122 -11.9117 -11.8718 -11.8714
  0:    -11.5298 -11.5291 -11.3836 -11.3819 -11.1627 -11.1543 -11.0967 -11.0898
  0:    -11.0572 -11.0526 -10.9559 -10.9517  -9.4361  -9.4361  -9.3832  -9.3832
  0:     -7.8365  -7.8364  -7.7960  -7.7959  -6.5453  -6.5450  -6.5345  -6.5342
  0:     -6.2950  -6.2945  -6.2888  -6.2883  -4.9138  -4.9131  -4.8684  -4.8672
  0:     -4.7572  -4.7562  -4.7180  -4.7178  -3.5820  -3.5800  -3.5408  -3.5377
  0:     -2.9607  -2.9568  -2.7846  -2.7707  -2.7566  -2.7484  -2.7210  -2.7025
  0:     -2.1609  -2.1590  -2.1407  -2.1393  -1.6176  -1.6139  -1.4854  -1.4835
  0:     -1.4167  -1.4055  -1.3483  -1.3458  -0.6458  -0.6393  -0.3598  -0.3199
  0:     -0.2762  -0.2434  -0.1628  -0.1497   0.0080   0.0318   0.0683   0.1216
  0:      0.3442   0.3554   0.4306   0.4645   0.5150   0.5703   0.6379   0.6713
  0:      0.7475   0.7762   0.8097   0.8605   0.8861   0.9057   0.9306   0.9586
  0:      0.9884   1.0396   1.0802   1.1006   1.1257   1.2214   1.2401   1.2722
  0:      1.3426   1.3826   1.4343   1.4846   1.7101   1.7232   1.7940   1.8115
  0:      5.0672   5.1323   5.4176   5.4834   6.0129   6.0518   6.2681   6.3585
  0:      6.6235   6.6665   6.7679   6.8135   6.8747   6.9240   7.0155   7.0766
  0:      8.0797   8.1131   8.2304   8.2598   8.3869   8.4645   8.5419   8.5980
  0:      8.6856   8.6936   8.7522   8.7777   9.0012   9.0112   9.0992   9.1198
  0:      9.2416   9.2527   9.3673   9.3836   9.6250   9.6314   9.6553   9.6629
  0:      9.8423   9.8683   9.9645   9.9979  10.0923  10.1090  10.1791  10.1921
  0:     10.2373  10.2549  10.3139  10.3281  10.4329  10.4639  10.5463  10.5708
  0:     10.6489  10.6818  10.8648  10.8748  10.9840  10.9998  11.0313  11.0619
  0: 
  0:           k =-0.1480 0.2590 0.5942 ( 52576 PWs)   bands (ev):
  0: 
  0:    -17.1657 -17.1657 -17.1628 -17.1628 -15.0215 -15.0211 -15.0170 -15.0166
  0:    -14.9986 -14.9983 -14.9947 -14.9939 -13.2914 -13.2913 -13.2697 -13.2696
  0:    -12.5578 -12.5526 -12.5288 -12.5252 -12.5161 -12.5140 -12.4741 -12.4671
  0:    -12.4191 -12.4180 -12.4101 -12.4094 -11.9137 -11.9132 -11.8686 -11.8683
  0:    -11.5357 -11.5350 -11.3731 -11.3711 -11.1689 -11.1598 -11.1042 -11.0966
  0:    -11.0554 -11.0513 -10.9505 -10.9466  -9.4398  -9.4397  -9.3812  -9.3811
  0:     -7.8382  -7.8381  -7.7935  -7.7934  -6.5459  -6.5457  -6.5340  -6.5338
  0:     -6.2953  -6.2948  -6.2885  -6.2880  -4.9188  -4.9180  -4.8693  -4.8681
  0:     -4.7557  -4.7546  -4.7140  -4.7138  -3.5801  -3.5782  -3.5341  -3.5312
  0:     -2.9708  -2.9666  -2.7814  -2.7700  -2.7553  -2.7415  -2.7168  -2.6955
  0:     -2.1595  -2.1574  -2.1375  -2.1360  -1.6263  -1.6226  -1.4890  -1.4870
  0:     -1.4230  -1.4121  -1.3415  -1.3390  -0.6673  -0.6613  -0.3672  -0.3268
  0:     -0.2737  -0.2442  -0.1535  -0.1435   0.0186   0.0414   0.0817   0.1451
  0:      0.3419   0.3528   0.4286   0.4648   0.5140   0.5688   0.6359   0.6752
  0:      0.7436   0.7733   0.8111   0.8562   0.8866   0.9042   0.9246   0.9570
  0:      0.9913   1.0428   1.0783   1.0995   1.1280   1.2203   1.2423   1.2699
  0:      1.3377   1.3822   1.4389   1.4885   1.7040   1.7168   1.7913   1.8082
  0:      5.0549   5.1190   5.4356   5.5028   6.0070   6.0435   6.2849   6.3753
  0:      6.6287   6.6712   6.7822   6.8166   6.8745   6.9290   7.0252   7.0837
  0:      8.0789   8.1093   8.2493   8.2745   8.3711   8.4440   8.5344   8.5906
  0:      8.6769   8.6847   8.7562   8.7821   9.0072   9.0168   9.1067   9.1233
  0:      9.2350   9.2463   9.3692   9.3844   9.6197   9.6323   9.6455   9.6566
  0:      9.8424   9.8670   9.9667   9.9956  10.0710  10.0912  10.1798  10.1937
  0:     10.2336  10.2496  10.3149  10.3216  10.4331  10.4644  10.5544  10.5760
  0:     10.6440  10.6695  10.8453  10.8554  10.9745  11.0007  11.0291  11.0617
  0: 
  0:           k =-0.1480 0.2354 0.5942 ( 52574 PWs)   bands (ev):
  0: 
  0:    -17.1659 -17.1659 -17.1627 -17.1627 -15.0217 -15.0213 -15.0168 -15.0164
  0:    -14.9988 -14.9985 -14.9945 -14.9938 -13.2924 -13.2922 -13.2687 -13.2686
  0:    -12.5591 -12.5544 -12.5287 -12.5268 -12.5153 -12.5141 -12.4711 -12.4646
  0:    -12.4197 -12.4186 -12.4100 -12.4093 -11.9151 -11.9146 -11.8656 -11.8653
  0:    -11.5411 -11.5404 -11.3626 -11.3604 -11.1748 -11.1650 -11.1126 -11.1044
  0:    -11.0531 -11.0494 -10.9456 -10.9419  -9.4432  -9.4432  -9.3793  -9.3793
  0:     -7.8398  -7.8397  -7.7911  -7.7910  -6.5466  -6.5463  -6.5337  -6.5334
  0:     -6.2957  -6.2952  -6.2883  -6.2877  -4.9237  -4.9229  -4.8703  -4.8690
  0:     -4.7540  -4.7528  -4.7102  -4.7100  -3.5780  -3.5762  -3.5275  -3.5246
  0:     -2.9802  -2.9757  -2.7797  -2.7705  -2.7533  -2.7350  -2.7118  -2.6884
  0:     -2.1579  -2.1555  -2.1343  -2.1326  -1.6337  -1.6300  -1.4933  -1.4912
  0:     -1.4303  -1.4198  -1.3348  -1.3321  -0.6872  -0.6820  -0.3748  -0.3351
  0:     -0.2709  -0.2451  -0.1490  -0.1345   0.0295   0.0508   0.0955   0.1687
  0:      0.3388   0.3503   0.4260   0.4660   0.5152   0.5674   0.6339   0.6784
  0:      0.7397   0.7701   0.8138   0.8513   0.8857   0.9008   0.9231   0.9552
  0:      0.9941   1.0448   1.0763   1.0993   1.1306   1.2189   1.2422   1.2677
  0:      1.3351   1.3817   1.4430   1.4914   1.6989   1.7113   1.7876   1.8038
  0:      5.0442   5.1065   5.4527   5.5211   6.0021   6.0357   6.3024   6.3906
  0:      6.6354   6.6751   6.7949   6.8192   6.8769   6.9360   7.0342   7.0893
  0:      8.0788   8.1058   8.2678   8.2885   8.3566   8.4230   8.5253   8.5821
  0:      8.6696   8.6775   8.7612   8.7873   9.0114   9.0235   9.1140   9.1266
  0:      9.2295   9.2405   9.3721   9.3862   9.6115   9.6281   9.6385   9.6516
  0:      9.8434   9.8662   9.9662   9.9884  10.0486  10.0725  10.1779  10.1911
  0:     10.2232  10.2392  10.3187  10.3239  10.4399  10.4739  10.5567  10.5798
  0:     10.6447  10.6644  10.8279  10.8384  10.9683  10.9997  11.0258  11.0570
  0: 
  0:           k =-0.1480 0.2119 0.5942 ( 52571 PWs)   bands (ev):
  0: 
  0:    -17.1660 -17.1660 -17.1626 -17.1626 -15.0219 -15.0215 -15.0166 -15.0163
  0:    -14.9989 -14.9987 -14.9943 -14.9936 -13.2932 -13.2931 -13.2678 -13.2677
  0:    -12.5603 -12.5561 -12.5292 -12.5282 -12.5149 -12.5132 -12.4682 -12.4623
  0:    -12.4202 -12.4192 -12.4099 -12.4092 -11.9164 -11.9159 -11.8626 -11.8624
  0:    -11.5459 -11.5454 -11.3523 -11.3498 -11.1805 -11.1699 -11.1213 -11.1125
  0:    -11.0506 -11.0473 -10.9410 -10.9376  -9.4465  -9.4465  -9.3777  -9.3776
  0:     -7.8412  -7.8412  -7.7888  -7.7887  -6.5472  -6.5469  -6.5333  -6.5330
  0:     -6.2960  -6.2955  -6.2880  -6.2874  -4.9283  -4.9274  -4.8714  -4.8701
  0:     -4.7522  -4.7510  -4.7067  -4.7064  -3.5757  -3.5741  -3.5208  -3.5181
  0:     -2.9888  -2.9840  -2.7790  -2.7713  -2.7511  -2.7299  -2.7059  -2.6814
  0:     -2.1562  -2.1535  -2.1312  -2.1293  -1.6397  -1.6360  -1.4982  -1.4959
  0:     -1.4385  -1.4282  -1.3282  -1.3255  -0.7055  -0.7014  -0.3825  -0.3438
  0:     -0.2682  -0.2460  -0.1460  -0.1261   0.0403   0.0598   0.1093   0.1915
  0:      0.3342   0.3483   0.4234   0.4681   0.5182   0.5664   0.6322   0.6805
  0:      0.7363   0.7671   0.8161   0.8471   0.8826   0.8972   0.9252   0.9533
  0:      0.9964   1.0456   1.0745   1.0997   1.1337   1.2164   1.2404   1.2655
  0:      1.3347   1.3808   1.4466   1.4932   1.6946   1.7067   1.7831   1.7987
  0:      5.0348   5.0950   5.4686   5.5379   5.9982   6.0286   6.3203   6.4042
  0:      6.6438   6.6782   6.8023   6.8256   6.8810   6.9445   7.0422   7.0933
  0:      8.0792   8.1026   8.2843   8.2999   8.3457   8.4023   8.5153   8.5728
  0:      8.6640   8.6729   8.7670   8.7930   9.0136   9.0291   9.1208   9.1294
  0:      9.2261   9.2364   9.3762   9.3895   9.6006   9.6160   9.6372   9.6472
  0:      9.8449   9.8655   9.9624   9.9760  10.0264  10.0549  10.1744  10.1866
  0:     10.2099  10.2267  10.3204  10.3302  10.4536  10.4921  10.5540  10.5779
  0:     10.6494  10.6677  10.8136  10.8245  10.9657  11.0000  11.0198  11.0476
  0: 
  0:           k =-0.1480 0.1883 0.5942 ( 52579 PWs)   bands (ev):
  0: 
  0:    -17.1661 -17.1661 -17.1625 -17.1625 -15.0220 -15.0217 -15.0164 -15.0162
  0:    -14.9990 -14.9989 -14.9941 -14.9935 -13.2940 -13.2939 -13.2670 -13.2669
  0:    -12.5614 -12.5577 -12.5301 -12.5292 -12.5145 -12.5122 -12.4655 -12.4602
  0:    -12.4208 -12.4198 -12.4098 -12.4091 -11.9175 -11.9171 -11.8598 -11.8596
  0:    -11.5503 -11.5498 -11.3422 -11.3394 -11.1859 -11.1746 -11.1299 -11.1207
  0:    -11.0483 -11.0452 -10.9369 -10.9338  -9.4496  -9.4496  -9.3762  -9.3762
  0:     -7.8425  -7.8424  -7.7868  -7.7866  -6.5477  -6.5475  -6.5330  -6.5327
  0:     -6.2963  -6.2958  -6.2878  -6.2872  -4.9326  -4.9317  -4.8725  -4.8711
  0:     -4.7504  -4.7491  -4.7034  -4.7032  -3.5734  -3.5719  -3.5145  -3.5119
  0:     -2.9966  -2.9916  -2.7788  -2.7721  -2.7490  -2.7262  -2.6995  -2.6747
  0:     -2.1543  -2.1514  -2.1282  -2.1261  -1.6443  -1.6406  -1.5035  -1.5007
  0:     -1.4474  -1.4372  -1.3220  -1.3192  -0.7220  -0.7193  -0.3897  -0.3527
  0:     -0.2654  -0.2465  -0.1432  -0.1193   0.0506   0.0683   0.1224   0.2129
  0:      0.3280   0.3469   0.4217   0.4706   0.5229   0.5659   0.6309   0.6809
  0:      0.7334   0.7649   0.8161   0.8450   0.8782   0.8942   0.9287   0.9521
  0:      0.9977   1.0456   1.0732   1.1005   1.1370   1.2125   1.2375   1.2634
  0:      1.3362   1.3797   1.4498   1.4940   1.6911   1.7032   1.7780   1.7932
  0:      5.0267   5.0844   5.4830   5.5531   5.9954   6.0223   6.3381   6.4158
  0:      6.6537   6.6804   6.8040   6.8360   6.8868   6.9538   7.0488   7.0963
  0:      8.0803   8.0998   8.2929   8.3071   8.3435   8.3833   8.5052   8.5634
  0:      8.6606   8.6711   8.7736   8.7990   9.0130   9.0318   9.1264   9.1319
  0:      9.2261   9.2353   9.3819   9.3947   9.5878   9.6021   9.6351   9.6429
  0:      9.8461   9.8636   9.9541   9.9612  10.0066  10.0388  10.1692  10.1821
  0:     10.1975  10.2134  10.3226  10.3359  10.4707  10.5147  10.5510  10.5703
  0:     10.6568  10.6758  10.8034  10.8142  10.9663  11.0019  11.0126  11.0348
  0: 
  0:           k =-0.1480 0.1648 0.5942 ( 52573 PWs)   bands (ev):
  0: 
  0:    -17.1662 -17.1662 -17.1624 -17.1624 -15.0222 -15.0219 -15.0163 -15.0160
  0:    -14.9992 -14.9990 -14.9939 -14.9934 -13.2947 -13.2946 -13.2662 -13.2661
  0:    -12.5624 -12.5592 -12.5312 -12.5302 -12.5138 -12.5113 -12.4630 -12.4583
  0:    -12.4212 -12.4203 -12.4097 -12.4091 -11.9186 -11.9181 -11.8572 -11.8570
  0:    -11.5542 -11.5537 -11.3325 -11.3293 -11.1911 -11.1791 -11.1384 -11.1287
  0:    -11.0461 -11.0434 -10.9332 -10.9304  -9.4524  -9.4524  -9.3749  -9.3749
  0:     -7.8436  -7.8436  -7.7849  -7.7847  -6.5482  -6.5480  -6.5327  -6.5325
  0:     -6.2966  -6.2960  -6.2876  -6.2870  -4.9365  -4.9357  -4.8735  -4.8722
  0:     -4.7487  -4.7473  -4.7005  -4.7003  -3.5712  -3.5697  -3.5084  -3.5060
  0:     -3.0035  -2.9983  -2.7790  -2.7730  -2.7471  -2.7234  -2.6932  -2.6685
  0:     -2.1525  -2.1494  -2.1253  -2.1231  -1.6474  -1.6437  -1.5091  -1.5055
  0:     -1.4566  -1.4462  -1.3163  -1.3135  -0.7369  -0.7355  -0.3964  -0.3614
  0:     -0.2626  -0.2467  -0.1405  -0.1141   0.0600   0.0762   0.1345   0.2323
  0:      0.3202   0.3457   0.4218   0.4732   0.5288   0.5659   0.6304   0.6794
  0:      0.7314   0.7639   0.8133   0.8449   0.8737   0.8923   0.9319   0.9526
  0:      0.9979   1.0446   1.0728   1.1018   1.1403   1.2075   1.2337   1.2618
  0:      1.3388   1.3781   1.4524   1.4938   1.6884   1.7006   1.7723   1.7877
  0:      5.0200   5.0749   5.4960   5.5667   5.9936   6.0168   6.3553   6.4253
  0:      6.6641   6.6824   6.8037   6.8466   6.8945   6.9630   7.0536   7.0987
  0:      8.0819   8.0974   8.2871   8.3115   8.3505   8.3696   8.4960   8.5548
  0:      8.6598   8.6719   8.7806   8.8053   9.0086   9.0304   9.1300   9.1348
  0:      9.2299   9.2385   9.3892   9.4017   9.5742   9.5877   9.6303   9.6383
  0:      9.8460   9.8587   9.9395   9.9483   9.9923  10.0246  10.1606  10.1770
  0:     10.1898  10.2015  10.3251  10.3415  10.4847  10.5360  10.5517  10.5619
  0:     10.6647  10.6855  10.7976  10.8081  10.9680  10.9995  11.0114  11.0209
  0: 
  0:           k =-0.1480 0.1413 0.5942 ( 52574 PWs)   bands (ev):
  0: 
  0:    -17.1663 -17.1663 -17.1623 -17.1623 -15.0223 -15.0221 -15.0161 -15.0159
  0:    -14.9993 -14.9991 -14.9938 -14.9933 -13.2953 -13.2952 -13.2656 -13.2655
  0:    -12.5632 -12.5605 -12.5322 -12.5311 -12.5130 -12.5105 -12.4607 -12.4567
  0:    -12.4217 -12.4208 -12.4097 -12.4092 -11.9195 -11.9190 -11.8548 -11.8547
  0:    -11.5575 -11.5571 -11.3231 -11.3197 -11.1959 -11.1834 -11.1462 -11.1363
  0:    -11.0441 -11.0417 -10.9300 -10.9275  -9.4549  -9.4549  -9.3738  -9.3738
  0:     -7.8446  -7.8445  -7.7832  -7.7831  -6.5487  -6.5484  -6.5325  -6.5322
  0:     -6.2968  -6.2963  -6.2875  -6.2868  -4.9400  -4.9392  -4.8744  -4.8731
  0:     -4.7471  -4.7456  -4.6980  -4.6977  -3.5691  -3.5676  -3.5028  -3.5006
  0:     -3.0096  -3.0042  -2.7793  -2.7738  -2.7454  -2.7214  -2.6873  -2.6629
  0:     -2.1507  -2.1473  -2.1227  -2.1203  -1.6491  -1.6455  -1.5151  -1.5103
  0:     -1.4657  -1.4550  -1.3111  -1.3084  -0.7507  -0.7493  -0.4025  -0.3695
  0:     -0.2600  -0.2466  -0.1378  -0.1101   0.0685   0.0834   0.1451   0.2490
  0:      0.3117   0.3446   0.4241   0.4753   0.5355   0.5662   0.6307   0.6758
  0:      0.7303   0.7639   0.8086   0.8452   0.8696   0.8923   0.9333   0.9557
  0:      0.9972   1.0422   1.0736   1.1033   1.1435   1.2019   1.2290   1.2607
  0:      1.3421   1.3763   1.4547   1.4929   1.6863   1.6991   1.7663   1.7825
  0:      5.0144   5.0666   5.5072   5.5785   5.9926   6.0121   6.3712   6.4330
  0:      6.6719   6.6870   6.8032   6.8554   6.9041   6.9715   7.0562   7.1010
  0:      8.0841   8.0956   8.2753   8.3060   8.3602   8.3659   8.4883   8.5482
  0:      8.6612   8.6750   8.7881   8.8115   9.0004   9.0246   9.1318   9.1384
  0:      9.2371   9.2459   9.3983   9.4103   9.5607   9.5734   9.6228   9.6327
  0:      9.8434   9.8495   9.9233   9.9363   9.9850  10.0129  10.1489  10.1679
  0:     10.1875  10.1950  10.3277  10.3471  10.4904  10.5414  10.5584  10.5675
  0:     10.6721  10.6957  10.7962  10.8068  10.9659  10.9932  11.0067  11.0208
  0: 
  0:           k =-0.1480 0.1177 0.5942 ( 52576 PWs)   bands (ev):
  0: 
  0:    -17.1664 -17.1664 -17.1623 -17.1623 -15.0224 -15.0222 -15.0160 -15.0159
  0:    -14.9993 -14.9992 -14.9936 -14.9932 -13.2959 -13.2957 -13.2650 -13.2649
  0:    -12.5639 -12.5616 -12.5330 -12.5320 -12.5122 -12.5099 -12.4586 -12.4553
  0:    -12.4220 -12.4213 -12.4097 -12.4092 -11.9203 -11.9198 -11.8528 -11.8526
  0:    -11.5604 -11.5600 -11.3144 -11.3107 -11.2002 -11.1877 -11.1533 -11.1435
  0:    -11.0424 -11.0404 -10.9272 -10.9250  -9.4571  -9.4571  -9.3729  -9.3729
  0:     -7.8454  -7.8454  -7.7817  -7.7816  -6.5490  -6.5488  -6.5323  -6.5320
  0:     -6.2970  -6.2965  -6.2873  -6.2866  -4.9431  -4.9422  -4.8753  -4.8739
  0:     -4.7456  -4.7441  -4.6958  -4.6955  -3.5671  -3.5657  -3.4978  -3.4958
  0:     -3.0148  -3.0092  -2.7796  -2.7744  -2.7441  -2.7198  -2.6820  -2.6580
  0:     -2.1490  -2.1455  -2.1203  -2.1178  -1.6496  -1.6461  -1.5211  -1.5152
  0:     -1.4742  -1.4630  -1.3067  -1.3041  -0.7633  -0.7605  -0.4077  -0.3769
  0:     -0.2576  -0.2462  -0.1352  -0.1070   0.0758   0.0898   0.1540   0.2624
  0:      0.3036   0.3435   0.4281   0.4769   0.5424   0.5665   0.6319   0.6709
  0:      0.7302   0.7645   0.8035   0.8445   0.8662   0.8946   0.9331   0.9604
  0:      0.9961   1.0386   1.0752   1.1054   1.1464   1.1964   1.2239   1.2599
  0:      1.3455   1.3742   1.4567   1.4913   1.6846   1.6985   1.7601   1.7779
  0:      5.0099   5.0594   5.5168   5.5885   5.9923   6.0082   6.3852   6.4395
  0:      6.6738   6.6968   6.8027   6.8622   6.9148   6.9790   7.0562   7.1036
  0:      8.0865   8.0948   8.2625   8.2917   8.3673   8.3710   8.4826   8.5442
  0:      8.6643   8.6799   8.7958   8.8175   8.9891   9.0151   9.1333   9.1417
  0:      9.2466   9.2565   9.4090   9.4201   9.5480   9.5598   9.6131   9.6255
  0:      9.8343   9.8395   9.9085   9.9258   9.9839  10.0052  10.1361  10.1554
  0:     10.1878  10.1941  10.3299  10.3527  10.4892  10.5318  10.5711  10.5813
  0:     10.6792  10.7065  10.7988  10.8106  10.9576  10.9815  11.0069  11.0298
  0: 
  0:           k =-0.1480 0.0942 0.5942 ( 52581 PWs)   bands (ev):
  0: 
  0:    -17.1665 -17.1665 -17.1622 -17.1622 -15.0225 -15.0223 -15.0159 -15.0158
  0:    -14.9994 -14.9993 -14.9935 -14.9931 -13.2963 -13.2962 -13.2645 -13.2644
  0:    -12.5644 -12.5626 -12.5337 -12.5328 -12.5114 -12.5095 -12.4568 -12.4541
  0:    -12.4224 -12.4217 -12.4097 -12.4093 -11.9209 -11.9205 -11.8510 -11.8508
  0:    -11.5627 -11.5624 -11.3063 -11.3025 -11.2040 -11.1921 -11.1590 -11.1499
  0:    -11.0410 -11.0393 -10.9248 -10.9231  -9.4589  -9.4589  -9.3721  -9.3721
  0:     -7.8461  -7.8460  -7.7805  -7.7804  -6.5494  -6.5491  -6.5322  -6.5319
  0:     -6.2972  -6.2966  -6.2872  -6.2865  -4.9457  -4.9448  -4.8760  -4.8747
  0:     -4.7444  -4.7428  -4.6940  -4.6937  -3.5654  -3.5640  -3.4936  -3.4917
  0:     -3.0191  -3.0133  -2.7799  -2.7750  -2.7431  -2.7186  -2.6776  -2.6539
  0:     -2.1475  -2.1438  -2.1184  -2.1157  -1.6491  -1.6457  -1.5270  -1.5201
  0:     -1.4816  -1.4698  -1.3031  -1.3004  -0.7740  -0.7697  -0.4119  -0.3833
  0:     -0.2555  -0.2457  -0.1328  -0.1045   0.0818   0.0954   0.1610   0.2713
  0:      0.2978   0.3423   0.4332   0.4781   0.5491   0.5666   0.6337   0.6653
  0:      0.7308   0.7648   0.7990   0.8427   0.8637   0.8987   0.9324   0.9649
  0:      0.9951   1.0346   1.0766   1.1080   1.1490   1.1913   1.2188   1.2592
  0:      1.3488   1.3719   1.4585   1.4893   1.6831   1.6987   1.7541   1.7742
  0:      5.0064   5.0535   5.5246   5.5967   5.9925   6.0052   6.3967   6.4451
  0:      6.6728   6.7084   6.8024   6.8673   6.9257   6.9853   7.0541   7.1066
  0:      8.0884   8.0956   8.2504   8.2748   8.3711   8.3780   8.4790   8.5431
  0:      8.6685   8.6861   8.8035   8.8230   8.9757   9.0034   9.1348   9.1446
  0:      9.2573   9.2686   9.4209   9.4305   9.5366   9.5478   9.6020   9.6164
  0:      9.8193   9.8308   9.8967   9.9164   9.9871  10.0020  10.1237  10.1426
  0:     10.1891  10.1956  10.3315  10.3579  10.4850  10.5217  10.5815  10.5924
  0:     10.6868  10.7172  10.8045  10.8190  10.9466  10.9674  11.0134  11.0392
  0: 
  0:           k =-0.1480 0.0706 0.5942 ( 52591 PWs)   bands (ev):
  0: 
  0:    -17.1665 -17.1665 -17.1622 -17.1622 -15.0225 -15.0224 -15.0159 -15.0158
  0:    -14.9995 -14.9994 -14.9934 -14.9931 -13.2966 -13.2965 -13.2642 -13.2641
  0:    -12.5648 -12.5634 -12.5342 -12.5335 -12.5107 -12.5092 -12.4553 -12.4533
  0:    -12.4226 -12.4221 -12.4096 -12.4093 -11.9215 -11.9210 -11.8496 -11.8494
  0:    -11.5645 -11.5642 -11.2993 -11.2955 -11.2070 -11.1967 -11.1633 -11.1554
  0:    -11.0398 -11.0385 -10.9230 -10.9216  -9.4604  -9.4603  -9.3715  -9.3715
  0:     -7.8466  -7.8466  -7.7796  -7.7794  -6.5496  -6.5494  -6.5321  -6.5318
  0:     -6.2973  -6.2967  -6.2871  -6.2864  -4.9478  -4.9468  -4.8765  -4.8752
  0:     -4.7434  -4.7418  -4.6926  -4.6922  -3.5641  -3.5627  -3.4901  -3.4885
  0:     -3.0224  -3.0166  -2.7801  -2.7754  -2.7423  -2.7178  -2.6741  -2.6506
  0:     -2.1463  -2.1424  -2.1168  -2.1140  -1.6480  -1.6447  -1.5325  -1.5248
  0:     -1.4874  -1.4753  -1.3002  -1.2976  -0.7825  -0.7770  -0.4152  -0.3886
  0:     -0.2539  -0.2450  -0.1309  -0.1026   0.0865   0.1002   0.1661   0.2735
  0:      0.2973   0.3410   0.4384   0.4790   0.5550   0.5666   0.6358   0.6600
  0:      0.7318   0.7643   0.7957   0.8403   0.8620   0.9036   0.9319   0.9680
  0:      0.9945   1.0314   1.0770   1.1110   1.1514   1.1869   1.2140   1.2584
  0:      1.3519   1.3695   1.4601   1.4872   1.6819   1.6995   1.7487   1.7713
  0:      5.0038   5.0489   5.5306   5.6031   5.9928   6.0030   6.4052   6.4502
  0:      6.6709   6.7190   6.8022   6.8712   6.9356   6.9904   7.0504   7.1096
  0:      8.0892   8.0983   8.2399   8.2587   8.3735   8.3830   8.4772   8.5442
  0:      8.6731   8.6926   8.8109   8.8278   8.9621   8.9912   9.1364   9.1470
  0:      9.2677   9.2806   9.4330   9.4407   9.5270   9.5385   9.5904   9.6058
  0:      9.8048   9.8211   9.8882   9.9079   9.9927  10.0025  10.1126  10.1311
  0:     10.1905  10.1978  10.3325  10.3624  10.4803  10.5129  10.5884  10.5989
  0:     10.6952  10.7263  10.8122  10.8306  10.9359  10.9544  11.0203  11.0471
  0: 
  0:           k =-0.1480 0.0471 0.5942 ( 52588 PWs)   bands (ev):
  0: 
  0:    -17.1666 -17.1666 -17.1621 -17.1621 -15.0226 -15.0225 -15.0158 -15.0157
  0:    -14.9995 -14.9994 -14.9933 -14.9931 -13.2969 -13.2968 -13.2639 -13.2638
  0:    -12.5650 -12.5641 -12.5345 -12.5340 -12.5101 -12.5090 -12.4542 -12.4528
  0:    -12.4227 -12.4224 -12.4096 -12.4094 -11.9218 -11.9213 -11.8486 -11.8483
  0:    -11.5658 -11.5655 -11.2936 -11.2901 -11.2089 -11.2012 -11.1659 -11.1599
  0:    -11.0389 -11.0380 -10.9216 -10.9205  -9.4614  -9.4614  -9.3711  -9.3711
  0:     -7.8470  -7.8469  -7.7789  -7.7788  -6.5498  -6.5495  -6.5320  -6.5317
  0:     -6.2974  -6.2968  -6.2871  -6.2863  -4.9492  -4.9483  -4.8770  -4.8756
  0:     -4.7427  -4.7411  -4.6916  -4.6912  -3.5631  -3.5617  -3.4876  -3.4861
  0:     -3.0248  -3.0189  -2.7803  -2.7757  -2.7417  -2.7172  -2.6716  -2.6483
  0:     -2.1453  -2.1414  -2.1156  -2.1128  -1.6466  -1.6435  -1.5369  -1.5289
  0:     -1.4916  -1.4792  -1.2981  -1.2955  -0.7887  -0.7822  -0.4176  -0.3925
  0:     -0.2528  -0.2444  -0.1294  -0.1012   0.0897   0.1042   0.1693   0.2711
  0:      0.3006   0.3397   0.4428   0.4797   0.5595   0.5665   0.6376   0.6558
  0:      0.7331   0.7629   0.7939   0.8381   0.8611   0.9083   0.9317   0.9695
  0:      0.9939   1.0297   1.0763   1.1139   1.1537   1.1832   1.2101   1.2577
  0:      1.3545   1.3673   1.4615   1.4854   1.6810   1.7006   1.7443   1.7692
  0:      5.0019   5.0455   5.5349   5.6076   5.9932   6.0015   6.4108   6.4546
  0:      6.6690   6.7274   6.8021   6.8739   6.9435   6.9945   7.0461   7.1122
  0:      8.0895   8.1018   8.2319   8.2454   8.3746   8.3858   8.4767   8.5462
  0:      8.6772   8.6985   8.8173   8.8317   8.9501   8.9805   9.1377   9.1488
  0:      9.2766   9.2908   9.4430   9.4502   9.5198   9.5324   9.5802   9.5945
  0:      9.7932   9.8123   9.8828   9.9008   9.9986  10.0054  10.1035  10.1219
  0:     10.1916  10.1997  10.3331  10.3660  10.4762  10.5061  10.5929  10.6013
  0:     10.7032  10.7329  10.8202  10.8425  10.9280  10.9432  11.0260  11.0522
  0: 
  0:           k =-0.1480 0.0235 0.5942 ( 52606 PWs)   bands (ev):
  0: 
  0:    -17.1666 -17.1666 -17.1621 -17.1621 -15.0226 -15.0226 -15.0158 -15.0157
  0:    -14.9995 -14.9995 -14.9932 -14.9931 -13.2970 -13.2969 -13.2637 -13.2637
  0:    -12.5651 -12.5645 -12.5347 -12.5343 -12.5097 -12.5090 -12.4533 -12.4526
  0:    -12.4228 -12.4226 -12.4096 -12.4094 -11.9221 -11.9215 -11.8480 -11.8477
  0:    -11.5666 -11.5663 -11.2898 -11.2867 -11.2094 -11.2052 -11.1669 -11.1631
  0:    -11.0383 -11.0377 -10.9208 -10.9199  -9.4620  -9.4620  -9.3709  -9.3708
  0:     -7.8472  -7.8472  -7.7785  -7.7783  -6.5499  -6.5496  -6.5319  -6.5316
  0:     -6.2974  -6.2969  -6.2870  -6.2863  -4.9501  -4.9492  -4.8772  -4.8759
  0:     -4.7422  -4.7406  -4.6909  -4.6906  -3.5624  -3.5611  -3.4861  -3.4846
  0:     -3.0262  -3.0203  -2.7805  -2.7759  -2.7414  -2.7168  -2.6701  -2.6469
  0:     -2.1448  -2.1408  -2.1149  -2.1120  -1.6455  -1.6426  -1.5398  -1.5318
  0:     -1.4940  -1.4815  -1.2968  -1.2943  -0.7925  -0.7853  -0.4189  -0.3950
  0:     -0.2522  -0.2440  -0.1285  -0.1003   0.0915   0.1069   0.1709   0.2686
  0:      0.3037   0.3387   0.4457   0.4802   0.5622   0.5665   0.6386   0.6533
  0:      0.7342   0.7613   0.7932   0.8365   0.8606   0.9117   0.9316   0.9700
  0:      0.9932   1.0293   1.0753   1.1161   1.1556   1.1805   1.2076   1.2572
  0:      1.3566   1.3654   1.4624   1.4840   1.6805   1.7015   1.7414   1.7680
  0:      5.0008   5.0435   5.5375   5.6104   5.9934   6.0007   6.4139   6.4577
  0:      6.6677   6.7328   6.8021   6.8756   6.9487   6.9973   7.0426   7.1139
  0:      8.0896   8.1045   8.2270   8.2364   8.3750   8.3871   8.4768   8.5480
  0:      8.6800   8.7026   8.8218   8.8343   8.9417   8.9730   9.1386   9.1499
  0:      9.2826   9.2977   9.4489   9.4578   9.5161   9.5286   9.5746   9.5840
  0:      9.7858   9.8064   9.8799   9.8960  10.0029  10.0085  10.0973  10.1159
  0:     10.1923  10.2010  10.3333  10.3683  10.4734  10.5019  10.5960  10.6011
  0:     10.7090  10.7367  10.8263  10.8514  10.9248  10.9339  11.0299  11.0544
  0: 
  0:           k =-0.1480 0.0000 0.5942 ( 52592 PWs)   bands (ev):
  0: 
  0:    -17.1666 -17.1666 -17.1621 -17.1621 -15.0226 -15.0226 -15.0157 -15.0157
  0:    -14.9995 -14.9995 -14.9932 -14.9931 -13.2971 -13.2969 -13.2637 -13.2636
  0:    -12.5651 -12.5647 -12.5347 -12.5344 -12.5095 -12.5091 -12.4529 -12.4527
  0:    -12.4228 -12.4227 -12.4096 -12.4095 -11.9221 -11.9216 -11.8477 -11.8475
  0:    -11.5669 -11.5665 -11.2884 -11.2856 -11.2082 -11.2080 -11.1670 -11.1645
  0:    -11.0381 -11.0377 -10.9205 -10.9197  -9.4623  -9.4622  -9.3708  -9.3708
  0:     -7.8473  -7.8472  -7.7783  -7.7782  -6.5499  -6.5497  -6.5319  -6.5316
  0:     -6.2975  -6.2969  -6.2870  -6.2863  -4.9504  -4.9495  -4.8773  -4.8759
  0:     -4.7421  -4.7404  -4.6907  -4.6904  -3.5622  -3.5609  -3.4855  -3.4841
  0:     -3.0267  -3.0207  -2.7805  -2.7760  -2.7413  -2.7167  -2.6696  -2.6464
  0:     -2.1446  -2.1406  -2.1147  -2.1117  -1.6450  -1.6423  -1.5408  -1.5329
  0:     -1.4948  -1.4823  -1.2964  -1.2939  -0.7937  -0.7863  -0.4194  -0.3958
  0:     -0.2520  -0.2438  -0.1282  -0.1000   0.0921   0.1078   0.1714   0.2677
  0:      0.3050   0.3383   0.4467   0.4804   0.5631   0.5665   0.6388   0.6526
  0:      0.7347   0.7607   0.7930   0.8359   0.8605   0.9129   0.9316   0.9701
  0:      0.9928   1.0294   1.0748   1.1169   1.1564   1.1794   1.2067   1.2570
  0:      1.3575   1.3645   1.4628   1.4835   1.6803   1.7018   1.7403   1.7676
  0:      5.0005   5.0429   5.5383   5.6113   5.9935   6.0004   6.4148   6.4588
  0:      6.6672   6.7347   6.8020   6.8762   6.9505   6.9984   7.0412   7.1145
  0:      8.0897   8.1056   8.2253   8.2332   8.3751   8.3875   8.4769   8.5487
  0:      8.6811   8.7041   8.8234   8.8352   8.9386   8.9704   9.1389   9.1503
  0:      9.2847   9.3001   9.4508   9.4608   9.5156   9.5268   9.5749   9.5776
  0:      9.7833   9.8043   9.8790   9.8943  10.0045  10.0099  10.0951  10.1138
  0:     10.1925  10.2015  10.3334  10.3691  10.4724  10.5004  10.5977  10.6002
  0:     10.7111  10.7380  10.8286  10.8547  10.9269  10.9275  11.0313  11.0549
  0: 
  0:           k =-0.1406 0.0000 0.5645 ( 52579 PWs)   bands (ev):
  0: 
  0:    -17.1666 -17.1666 -17.1621 -17.1621 -15.0226 -15.0226 -15.0157 -15.0157
  0:    -14.9995 -14.9995 -14.9931 -14.9931 -13.2972 -13.2971 -13.2635 -13.2634
  0:    -12.5650 -12.5645 -12.5348 -12.5345 -12.5095 -12.5090 -12.4529 -12.4526
  0:    -12.4228 -12.4227 -12.4096 -12.4095 -11.9223 -11.9217 -11.8488 -11.8485
  0:    -11.5666 -11.5663 -11.2912 -11.2880 -11.2072 -11.2072 -11.1667 -11.1640
  0:    -11.0340 -11.0335 -10.9215 -10.9208  -9.4615  -9.4615  -9.3716  -9.3716
  0:     -7.8475  -7.8474  -7.7794  -7.7793  -6.5505  -6.5502  -6.5329  -6.5326
  0:     -6.2970  -6.2964  -6.2874  -6.2868  -4.9454  -4.9443  -4.8849  -4.8837
  0:     -4.7388  -4.7373  -4.6921  -4.6917  -3.5633  -3.5617  -3.4849  -3.4833
  0:     -3.0283  -3.0217  -2.7814  -2.7766  -2.7442  -2.7188  -2.6670  -2.6434
  0:     -2.1415  -2.1373  -2.1157  -2.1127  -1.6407  -1.6380  -1.5376  -1.5322
  0:     -1.4937  -1.4828  -1.2916  -1.2887  -0.7990  -0.7933  -0.4188  -0.3924
  0:     -0.2464  -0.2383  -0.1324  -0.1054   0.0740   0.0957   0.1672   0.2599
  0:      0.2987   0.3350   0.4558   0.4902   0.5609   0.5844   0.6338   0.6598
  0:      0.7368   0.7563   0.7907   0.8376   0.8700   0.9104   0.9338   0.9625
  0:      1.0029   1.0266   1.0721   1.1136   1.1607   1.1760   1.2131   1.2618
  0:      1.3588   1.3660   1.4698   1.4876   1.6763   1.7044   1.7400   1.7709
  0:      4.9993   5.0483   5.5302   5.6044   5.9970   6.0075   6.4097   6.4511
  0:      6.6745   6.7282   6.7874   6.8497   6.9373   6.9924   7.0286   7.1226
  0:      8.0560   8.0952   8.2304   8.2385   8.3709   8.3818   8.4738   8.5410
  0:      8.6767   8.6897   8.8063   8.8327   8.9478   8.9760   9.1585   9.1675
  0:      9.2823   9.2965   9.4506   9.4688   9.5315   9.5409   9.5843   9.5927
  0:      9.7832   9.8088   9.8699   9.8893  10.0007  10.0108  10.0775  10.0930
  0:     10.1974  10.2102  10.3325  10.3638  10.4762  10.5038  10.5751  10.5798
  0:     10.7114  10.7415  10.8242  10.8369  10.9269  10.9347  11.0508  11.0696
  0: 
  0:           k =-0.1332 0.0000 0.5348 ( 52575 PWs)   bands (ev):
  0: 
  0:    -17.1666 -17.1666 -17.1622 -17.1622 -15.0226 -15.0226 -15.0157 -15.0157
  0:    -14.9995 -14.9995 -14.9931 -14.9931 -13.2973 -13.2972 -13.2633 -13.2632
  0:    -12.5649 -12.5643 -12.5348 -12.5345 -12.5095 -12.5089 -12.4529 -12.4526
  0:    -12.4228 -12.4227 -12.4096 -12.4095 -11.9223 -11.9218 -11.8498 -11.8496
  0:    -11.5665 -11.5661 -11.2942 -11.2908 -11.2065 -11.2064 -11.1660 -11.1632
  0:    -11.0297 -11.0291 -10.9225 -10.9218  -9.4606  -9.4606  -9.3726  -9.3726
  0:     -7.8477  -7.8476  -7.7807  -7.7806  -6.5509  -6.5507  -6.5340  -6.5337
  0:     -6.2964  -6.2960  -6.2880  -6.2874  -4.9399  -4.9388  -4.8922  -4.8911
  0:     -4.7362  -4.7347  -4.6937  -4.6933  -3.5642  -3.5625  -3.4842  -3.4825
  0:     -3.0301  -3.0230  -2.7819  -2.7770  -2.7467  -2.7209  -2.6641  -2.6404
  0:     -2.1391  -2.1350  -2.1157  -2.1128  -1.6362  -1.6336  -1.5345  -1.5322
  0:     -1.4913  -1.4828  -1.2869  -1.2838  -0.8043  -0.8006  -0.4184  -0.3893
  0:     -0.2412  -0.2338  -0.1367  -0.1089   0.0556   0.0877   0.1648   0.2533
  0:      0.2919   0.3300   0.4636   0.5001   0.5584   0.5978   0.6294   0.6697
  0:      0.7386   0.7541   0.7851   0.8423   0.8797   0.9087   0.9380   0.9550
  0:      1.0129   1.0260   1.0690   1.1093   1.1640   1.1734   1.2202   1.2650
  0:      1.3598   1.3660   1.4762   1.4904   1.6714   1.7064   1.7388   1.7736
  0:      4.9984   5.0534   5.5224   5.5960   5.9997   6.0140   6.4059   6.4455
  0:      6.6789   6.7178   6.7744   6.8215   6.9260   6.9855   7.0150   7.1298
  0:      8.0087   8.0612   8.2508   8.2644   8.3667   8.3754   8.4730   8.5338
  0:      8.6630   8.6749   8.7932   8.8315   8.9588   8.9838   9.1681   9.1738
  0:      9.2891   9.3040   9.4512   9.4741   9.5520   9.5586   9.5925   9.6044
  0:      9.7810   9.8094   9.8709   9.8945   9.9963  10.0094  10.0647  10.0767
  0:     10.2065  10.2214  10.3350  10.3615  10.4734  10.4998  10.5545  10.5615
  0:     10.7183  10.7482  10.8128  10.8163  10.9331  10.9467  11.0705  11.0852
  0: 
  0:           k =-0.1258 0.0000 0.5051 ( 52559 PWs)   bands (ev):
  0: 
  0:    -17.1666 -17.1666 -17.1622 -17.1622 -15.0226 -15.0226 -15.0158 -15.0157
  0:    -14.9995 -14.9995 -14.9931 -14.9931 -13.2975 -13.2974 -13.2631 -13.2630
  0:    -12.5648 -12.5641 -12.5349 -12.5346 -12.5095 -12.5089 -12.4529 -12.4526
  0:    -12.4228 -12.4227 -12.4096 -12.4094 -11.9221 -11.9217 -11.8509 -11.8506
  0:    -11.5665 -11.5661 -11.2976 -11.2939 -11.2060 -11.2057 -11.1649 -11.1620
  0:    -11.0252 -11.0245 -10.9235 -10.9228  -9.4596  -9.4595  -9.3738  -9.3737
  0:     -7.8479  -7.8479  -7.7822  -7.7820  -6.5513  -6.5510  -6.5354  -6.5351
  0:     -6.2959  -6.2956  -6.2885  -6.2881  -4.9343  -4.9331  -4.8991  -4.8980
  0:     -4.7342  -4.7328  -4.6957  -4.6953  -3.5650  -3.5630  -3.4835  -3.4816
  0:     -3.0321  -3.0246  -2.7818  -2.7771  -2.7487  -2.7228  -2.6609  -2.6374
  0:     -2.1377  -2.1342  -2.1144  -2.1118  -1.6315  -1.6293  -1.5341  -1.5307
  0:     -1.4878  -1.4822  -1.2825  -1.2790  -0.8096  -0.8080  -0.4180  -0.3866
  0:     -0.2375  -0.2300  -0.1403  -0.1102   0.0381   0.0832   0.1642   0.2478
  0:      0.2854   0.3235   0.4703   0.5091   0.5561   0.6049   0.6255   0.6825
  0:      0.7382   0.7552   0.7790   0.8483   0.8883   0.9101   0.9437   0.9487
  0:      1.0143   1.0341   1.0660   1.1048   1.1652   1.1738   1.2271   1.2663
  0:      1.3607   1.3651   1.4814   1.4922   1.6656   1.7077   1.7363   1.7755
  0:      4.9977   5.0578   5.5148   5.5865   6.0016   6.0195   6.4038   6.4421
  0:      6.6798   6.7057   6.7616   6.7928   6.9166   6.9772   7.0009   7.1357
  0:      7.9557   8.0162   8.2809   8.2944   8.3629   8.3690   8.4748   8.5271
  0:      8.6435   8.6608   8.7843   8.8315   8.9720   8.9928   9.1671   9.1700
  0:      9.3077   9.3243   9.4518   9.4752   9.5654   9.5720   9.6017   9.6140
  0:      9.7860   9.8158   9.8742   9.9027   9.9921  10.0064  10.0588  10.0673
  0:     10.2192  10.2347  10.3407  10.3632  10.4647  10.4893  10.5367  10.5453
  0:     10.7315  10.7541  10.7969  10.7989  10.9464  10.9632  11.0899  11.1019
  0: 
  0:           k =-0.1184 0.0000 0.4754 ( 52598 PWs)   bands (ev):
  0: 
  0:    -17.1666 -17.1666 -17.1622 -17.1622 -15.0226 -15.0226 -15.0158 -15.0157
  0:    -14.9995 -14.9995 -14.9931 -14.9931 -13.2976 -13.2975 -13.2629 -13.2628
  0:    -12.5646 -12.5639 -12.5349 -12.5346 -12.5094 -12.5088 -12.4530 -12.4525
  0:    -12.4228 -12.4227 -12.4096 -12.4094 -11.9218 -11.9214 -11.8520 -11.8517
  0:    -11.5667 -11.5663 -11.3012 -11.2974 -11.2057 -11.2052 -11.1633 -11.1604
  0:    -11.0208 -11.0199 -10.9244 -10.9237  -9.4583  -9.4582  -9.3752  -9.3751
  0:     -7.8482  -7.8481  -7.7837  -7.7836  -6.5515  -6.5513  -6.5368  -6.5366
  0:     -6.2955  -6.2953  -6.2890  -6.2889  -4.9284  -4.9272  -4.9056  -4.9046
  0:     -4.7327  -4.7314  -4.6981  -4.6976  -3.5655  -3.5634  -3.4829  -3.4808
  0:     -3.0342  -3.0266  -2.7813  -2.7768  -2.7504  -2.7245  -2.6575  -2.6345
  0:     -2.1372  -2.1345  -2.1120  -2.1099  -1.6268  -1.6250  -1.5357  -1.5283
  0:     -1.4838  -1.4811  -1.2784  -1.2746  -0.8156  -0.8146  -0.4178  -0.3842
  0:     -0.2374  -0.2257  -0.1421  -0.1093   0.0224   0.0818   0.1652   0.2435
  0:      0.2799   0.3157   0.4761   0.5162   0.5546   0.6051   0.6234   0.6966
  0:      0.7356   0.7579   0.7752   0.8543   0.8949   0.9147   0.9416   0.9533
  0:      1.0106   1.0461   1.0634   1.1016   1.1646   1.1771   1.2332   1.2654
  0:      1.3617   1.3635   1.4848   1.4932   1.6589   1.7082   1.7323   1.7763
  0:      4.9974   5.0615   5.5073   5.5760   6.0027   6.0238   6.4034   6.4411
  0:      6.6757   6.6943   6.7479   6.7655   6.9087   6.9663   6.9877   7.1399
  0:      7.9004   7.9670   8.3071   8.3187   8.3647   8.3689   8.4795   8.5208
  0:      8.6257   8.6470   8.7779   8.8318   8.9879   9.0028   9.1599   9.1624
  0:      9.3322   9.3517   9.4484   9.4686   9.5638   9.5761   9.6203   9.6335
  0:      9.8002   9.8276   9.8745   9.9078   9.9887  10.0030  10.0605  10.0681
  0:     10.2345  10.2502  10.3486  10.3678  10.4513  10.4747  10.5229  10.5318
  0:     10.7442  10.7529  10.7821  10.7982  10.9644  10.9825  11.1082  11.1190
  0: 
  0:           k =-0.1110 0.0000 0.4456 ( 52621 PWs)   bands (ev):
  0: 
  0:    -17.1667 -17.1667 -17.1622 -17.1622 -15.0226 -15.0226 -15.0158 -15.0157
  0:    -14.9995 -14.9995 -14.9931 -14.9931 -13.2978 -13.2977 -13.2627 -13.2626
  0:    -12.5644 -12.5637 -12.5349 -12.5347 -12.5094 -12.5088 -12.4530 -12.4525
  0:    -12.4228 -12.4227 -12.4096 -12.4094 -11.9213 -11.9210 -11.8530 -11.8528
  0:    -11.5672 -11.5667 -11.3050 -11.3012 -11.2055 -11.2048 -11.1613 -11.1584
  0:    -11.0165 -11.0153 -10.9251 -10.9245  -9.4569  -9.4567  -9.3768  -9.3766
  0:     -7.8485  -7.8484  -7.7854  -7.7853  -6.5515  -6.5514  -6.5384  -6.5382
  0:     -6.2953  -6.2953  -6.2895  -6.2894  -4.9225  -4.9213  -4.9115  -4.9106
  0:     -4.7318  -4.7305  -4.7007  -4.7002  -3.5657  -3.5635  -3.4823  -3.4801
  0:     -3.0365  -3.0288  -2.7802  -2.7761  -2.7516  -2.7260  -2.6540  -2.6316
  0:     -2.1372  -2.1356  -2.1091  -2.1075  -1.6220  -1.6207  -1.5378  -1.5264
  0:     -1.4799  -1.4793  -1.2746  -1.2705  -0.8229  -0.8197  -0.4175  -0.3822
  0:     -0.2407  -0.2206  -0.1418  -0.1066   0.0087   0.0833   0.1676   0.2401
  0:      0.2762   0.3071   0.4810   0.5203   0.5546   0.5999   0.6237   0.7094
  0:      0.7322   0.7600   0.7752   0.8596   0.8999   0.9202   0.9377   0.9637
  0:      1.0057   1.0537   1.0643   1.1012   1.1640   1.1813   1.2386   1.2626
  0:      1.3614   1.3630   1.4859   1.4942   1.6513   1.7079   1.7266   1.7760
  0:      4.9972   5.0641   5.4998   5.5651   6.0031   6.0266   6.4051   6.4425
  0:      6.6652   6.6852   6.7303   6.7444   6.9017   6.9517   6.9772   7.1422
  0:      7.8445   7.9160   8.3117   8.3198   8.3857   8.3893   8.4882   8.5157
  0:      8.6131   8.6359   8.7728   8.8312   9.0060   9.0136   9.1510   9.1552
  0:      9.3512   9.3762   9.4410   9.4560   9.5614   9.5798   9.6457   9.6619
  0:      9.8185   9.8383   9.8726   9.9067   9.9852   9.9992  10.0687  10.0815
  0:     10.2515  10.2683  10.3568  10.3718  10.4346  10.4578  10.5142  10.5238
  0:     10.7322  10.7594  10.7820  10.8160  10.9832  11.0016  11.1249  11.1361
  0: 
  0:           k =-0.1036 0.0000 0.4159 ( 52629 PWs)   bands (ev):
  0: 
  0:    -17.1667 -17.1667 -17.1621 -17.1621 -15.0226 -15.0226 -15.0158 -15.0157
  0:    -14.9995 -14.9995 -14.9931 -14.9931 -13.2979 -13.2978 -13.2625 -13.2624
  0:    -12.5643 -12.5635 -12.5350 -12.5348 -12.5094 -12.5087 -12.4530 -12.4525
  0:    -12.4228 -12.4227 -12.4096 -12.4094 -11.9206 -11.9203 -11.8541 -11.8539
  0:    -11.5677 -11.5672 -11.3090 -11.3052 -11.2054 -11.2045 -11.1589 -11.1560
  0:    -11.0123 -11.0109 -10.9258 -10.9250  -9.4553  -9.4551  -9.3786  -9.3784
  0:     -7.8487  -7.8487  -7.7871  -7.7870  -6.5515  -6.5513  -6.5401  -6.5399
  0:     -6.2958  -6.2955  -6.2899  -6.2894  -4.9171  -4.9169  -4.9158  -4.9153
  0:     -4.7313  -4.7301  -4.7036  -4.7031  -3.5657  -3.5634  -3.4818  -3.4795
  0:     -3.0388  -3.0312  -2.7785  -2.7748  -2.7525  -2.7272  -2.6504  -2.6288
  0:     -2.1377  -2.1369  -2.1061  -2.1049  -1.6173  -1.6161  -1.5403  -1.5253
  0:     -1.4780  -1.4756  -1.2708  -1.2666  -0.8299  -0.8246  -0.4173  -0.3806
  0:     -0.2460  -0.2150  -0.1395  -0.1023  -0.0027   0.0874   0.1710   0.2373
  0:      0.2747   0.2983   0.4850   0.5215   0.5554   0.5930   0.6247   0.7185
  0:      0.7294   0.7621   0.7773   0.8643   0.9040   0.9236   0.9367   0.9760
  0:      1.0006   1.0527   1.0707   1.1054   1.1639   1.1860   1.2433   1.2579
  0:      1.3594   1.3642   1.4850   1.4951   1.6429   1.7062   1.7196   1.7745
  0:      4.9971   5.0657   5.4924   5.5540   6.0028   6.0277   6.4087   6.4461
  0:      6.6503   6.6759   6.7084   6.7322   6.8946   6.9352   6.9690   7.1425
  0:      7.7888   7.8646   8.2991   8.3053   8.4116   8.4259   8.5026   8.5153
  0:      8.6078   8.6294   8.7690   8.8290   9.0211   9.0280   9.1430   9.1494
  0:      9.3490   9.3716   9.4520   9.4526   9.5665   9.5870   9.6770   9.6950
  0:      9.8348   9.8471   9.8716   9.9002   9.9793   9.9930  10.0834  10.1042
  0:     10.2692  10.2883  10.3633  10.3718  10.4160  10.4402  10.5102  10.5265
  0:     10.7220  10.7510  10.8069  10.8406  11.0002  11.0182  11.1394  11.1522
  0: 
  0:           k =-0.0962 0.0000 0.3862 ( 52612 PWs)   bands (ev):
  0: 
  0:    -17.1668 -17.1668 -17.1621 -17.1621 -15.0226 -15.0226 -15.0158 -15.0157
  0:    -14.9995 -14.9995 -14.9931 -14.9931 -13.2980 -13.2979 -13.2623 -13.2622
  0:    -12.5641 -12.5632 -12.5350 -12.5349 -12.5094 -12.5087 -12.4530 -12.4524
  0:    -12.4229 -12.4228 -12.4096 -12.4094 -11.9197 -11.9194 -11.8552 -11.8550
  0:    -11.5685 -11.5680 -11.3131 -11.3093 -11.2055 -11.2045 -11.1562 -11.1533
  0:    -11.0085 -11.0068 -10.9263 -10.9254  -9.4536  -9.4533  -9.3805  -9.3803
  0:     -7.8490  -7.8489  -7.7889  -7.7888  -6.5513  -6.5511  -6.5419  -6.5417
  0:     -6.2967  -6.2962  -6.2899  -6.2892  -4.9219  -4.9211  -4.9109  -4.9097
  0:     -4.7312  -4.7300  -4.7067  -4.7062  -3.5653  -3.5629  -3.4815  -3.4790
  0:     -3.0414  -3.0339  -2.7763  -2.7731  -2.7529  -2.7282  -2.6467  -2.6260
  0:     -2.1385  -2.1381  -2.1035  -2.1024  -1.6129  -1.6112  -1.5430  -1.5249
  0:     -1.4765  -1.4723  -1.2671  -1.2628  -0.8365  -0.8293  -0.4170  -0.3795
  0:     -0.2519  -0.2092  -0.1361  -0.0969  -0.0117   0.0937   0.1750   0.2342
  0:      0.2754   0.2907   0.4880   0.5206   0.5556   0.5864   0.6260   0.7215
  0:      0.7301   0.7647   0.7794   0.8682   0.9076   0.9239   0.9391   0.9891
  0:      0.9963   1.0498   1.0753   1.1140   1.1643   1.1908   1.2471   1.2525
  0:      1.3573   1.3654   1.4831   1.4953   1.6335   1.7012   1.7133   1.7719
  0:      4.9972   5.0659   5.4849   5.5431   6.0020   6.0273   6.4141   6.4515
  0:      6.6334   6.6638   6.6880   6.7252   6.8860   6.9203   6.9622   7.1407
  0:      7.7337   7.8134   8.2800   8.2855   8.4315   8.4570   8.5195   8.5327
  0:      8.6108   8.6291   8.7666   8.8253   9.0301   9.0465   9.1361   9.1442
  0:      9.3219   9.3392   9.4661   9.4845   9.5763   9.5948   9.7153   9.7315
  0:      9.8428   9.8607   9.8744   9.8910   9.9689   9.9821  10.1026  10.1312
  0:     10.2869  10.3079  10.3666  10.3677  10.3972  10.4228  10.5132  10.5401
  0:     10.7184  10.7469  10.8341  10.8663  11.0159  11.0336  11.1508  11.1655
  0: 
  0:           k =-0.0888 0.0000 0.3565 ( 52646 PWs)   bands (ev):
  0: 
  0:    -17.1669 -17.1669 -17.1620 -17.1620 -15.0226 -15.0226 -15.0158 -15.0157
  0:    -14.9995 -14.9995 -14.9931 -14.9931 -13.2981 -13.2980 -13.2622 -13.2620
  0:    -12.5638 -12.5630 -12.5350 -12.5349 -12.5093 -12.5087 -12.4530 -12.4524
  0:    -12.4229 -12.4228 -12.4096 -12.4094 -11.9185 -11.9183 -11.8563 -11.8561
  0:    -11.5694 -11.5689 -11.3171 -11.3135 -11.2056 -11.2045 -11.1532 -11.1503
  0:    -11.0050 -11.0030 -10.9265 -10.9255  -9.4516  -9.4513  -9.3826  -9.3824
  0:     -7.8493  -7.8492  -7.7907  -7.7906  -6.5509  -6.5508  -6.5437  -6.5434
  0:     -6.2979  -6.2974  -6.2895  -6.2887  -4.9262  -4.9255  -4.9055  -4.9044
  0:     -4.7313  -4.7302  -4.7099  -4.7094  -3.5646  -3.5621  -3.4814  -3.4788
  0:     -3.0440  -3.0369  -2.7736  -2.7708  -2.7529  -2.7289  -2.6429  -2.6232
  0:     -2.1398  -2.1387  -2.1014  -2.1003  -1.6087  -1.6061  -1.5458  -1.5253
  0:     -1.4755  -1.4699  -1.2632  -1.2589  -0.8425  -0.8338  -0.4166  -0.3788
  0:     -0.2574  -0.2032  -0.1318  -0.0906  -0.0183   0.1017   0.1791   0.2301
  0:      0.2767   0.2876   0.4900   0.5186   0.5538   0.5812   0.6277   0.7213
  0:      0.7322   0.7669   0.7808   0.8710   0.9100   0.9236   0.9423   0.9927
  0:      1.0034   1.0471   1.0779   1.1236   1.1651   1.1957   1.2435   1.2545
  0:      1.3555   1.3664   1.4808   1.4949   1.6232   1.6911   1.7097   1.7682
  0:      4.9972   5.0648   5.4774   5.5326   6.0007   6.0252   6.4205   6.4585
  0:      6.6158   6.6492   6.6706   6.7217   6.8745   6.9098   6.9564   7.1370
  0:      7.6798   7.7627   8.2587   8.2636   8.4435   8.4689   8.5490   8.5629
  0:      8.6236   8.6378   8.7652   8.8205   9.0364   9.0629   9.1291   9.1380
  0:      9.2845   9.2992   9.4889   9.5205   9.5866   9.6019   9.7564   9.7732
  0:      9.8475   9.8749   9.8786   9.8882   9.9536   9.9671  10.1230  10.1576
  0:     10.3036  10.3219  10.3621  10.3690  10.3802  10.4068  10.5254  10.5611
  0:     10.7213  10.7498  10.8570  10.8869  11.0347  11.0536  11.1583  11.1741
  0: 
  0:           k =-0.0814 0.0000 0.3268 ( 52647 PWs)   bands (ev):
  0: 
  0:    -17.1670 -17.1670 -17.1619 -17.1619 -15.0226 -15.0225 -15.0158 -15.0157
  0:    -14.9995 -14.9995 -14.9931 -14.9931 -13.2982 -13.2981 -13.2620 -13.2619
  0:    -12.5636 -12.5628 -12.5351 -12.5350 -12.5093 -12.5087 -12.4530 -12.4524
  0:    -12.4229 -12.4228 -12.4096 -12.4094 -11.9172 -11.9169 -11.8574 -11.8572
  0:    -11.5705 -11.5699 -11.3212 -11.3178 -11.2059 -11.2047 -11.1500 -11.1472
  0:    -11.0018 -10.9997 -10.9266 -10.9255  -9.4495  -9.4492  -9.3849  -9.3846
  0:     -7.8496  -7.8495  -7.7926  -7.7924  -6.5505  -6.5504  -6.5454  -6.5452
  0:     -6.2993  -6.2989  -6.2889  -6.2881  -4.9299  -4.9293  -4.9005  -4.8994
  0:     -4.7317  -4.7307  -4.7132  -4.7127  -3.5635  -3.5610  -3.4815  -3.4788
  0:     -3.0467  -3.0399  -2.7705  -2.7680  -2.7527  -2.7294  -2.6391  -2.6205
  0:     -2.1410  -2.1391  -2.0999  -2.0987  -1.6045  -1.6009  -1.5487  -1.5263
  0:     -1.4752  -1.4685  -1.2591  -1.2548  -0.8479  -0.8381  -0.4161  -0.3787
  0:     -0.2618  -0.1972  -0.1267  -0.0837  -0.0228   0.1108   0.1832   0.2238
  0:      0.2770   0.2921   0.4911   0.5159   0.5499   0.5774   0.6300   0.7219
  0:      0.7322   0.7675   0.7823   0.8726   0.9094   0.9255   0.9444   0.9914
  0:      1.0173   1.0451   1.0796   1.1306   1.1659   1.2009   1.2369   1.2608
  0:      1.3539   1.3673   1.4786   1.4941   1.6121   1.6775   1.7075   1.7635
  0:      4.9971   5.0623   5.4699   5.5227   5.9989   6.0218   6.4271   6.4661
  0:      6.5987   6.6340   6.6558   6.7207   6.8616   6.9040   6.9515   7.1314
  0:      7.6271   7.7127   8.2375   8.2416   8.4505   8.4700   8.5813   8.5923
  0:      8.6482   8.6621   8.7648   8.8148   9.0400   9.0748   9.1201   9.1281
  0:      9.2468   9.2595   9.5158   9.5542   9.5960   9.6102   9.7864   9.8245
  0:      9.8550   9.8649   9.8925   9.9058   9.9365   9.9532  10.1421  10.1804
  0:     10.3166  10.3268  10.3549  10.3665  10.3786  10.3938  10.5459  10.5860
  0:     10.7288  10.7592  10.8719  10.8992  11.0605  11.0818  11.1626  11.1774
  0: 
  0:           k =-0.0740 0.0000 0.2971 ( 52646 PWs)   bands (ev):
  0: 
  0:    -17.1672 -17.1672 -17.1618 -17.1618 -15.0226 -15.0225 -15.0158 -15.0157
  0:    -14.9995 -14.9995 -14.9931 -14.9931 -13.2982 -13.2982 -13.2619 -13.2618
  0:    -12.5634 -12.5626 -12.5351 -12.5351 -12.5093 -12.5087 -12.4530 -12.4524
  0:    -12.4229 -12.4228 -12.4096 -12.4094 -11.9156 -11.9154 -11.8586 -11.8584
  0:    -11.5716 -11.5710 -11.3251 -11.3219 -11.2062 -11.2051 -11.1467 -11.1440
  0:    -10.9990 -10.9967 -10.9264 -10.9252  -9.4473  -9.4470  -9.3872  -9.3870
  0:     -7.8499  -7.8498  -7.7944  -7.7942  -6.5500  -6.5499  -6.5471  -6.5469
  0:     -6.3009  -6.3006  -6.2883  -6.2875  -4.9331  -4.9326  -4.8960  -4.8950
  0:     -4.7321  -4.7312  -4.7164  -4.7161  -3.5621  -3.5596  -3.4818  -3.4790
  0:     -3.0495  -3.0431  -2.7672  -2.7646  -2.7521  -2.7296  -2.6352  -2.6178
  0:     -2.1420  -2.1394  -2.0992  -2.0977  -1.6004  -1.5956  -1.5517  -1.5278
  0:     -1.4758  -1.4684  -1.2546  -1.2506  -0.8525  -0.8420  -0.4156  -0.3791
  0:     -0.2647  -0.1914  -0.1207  -0.0765  -0.0255   0.1201   0.1869   0.2156
  0:      0.2800   0.3010   0.4912   0.5128   0.5446   0.5745   0.6329   0.7236
  0:      0.7298   0.7661   0.7845   0.8732   0.9056   0.9290   0.9461   0.9913
  0:      1.0309   1.0439   1.0809   1.1335   1.1656   1.2058   1.2319   1.2691
  0:      1.3524   1.3681   1.4767   1.4934   1.6005   1.6620   1.7056   1.7582
  0:      4.9967   5.0585   5.4626   5.5136   5.9969   6.0175   6.4321   6.4731
  0:      6.5836   6.6203   6.6432   6.7216   6.8500   6.9016   6.9477   7.1243
  0:      7.5759   7.6636   8.2176   8.2208   8.4554   8.4689   8.6038   8.6160
  0:      8.6857   8.7029   8.7656   8.8087   9.0401   9.0786   9.1084   9.1135
  0:      9.2140   9.2242   9.5454   9.5779   9.6049   9.6268   9.7948   9.8498
  0:      9.8718   9.8764   9.9025   9.9084   9.9455   9.9545  10.1587  10.1980
  0:     10.3163  10.3339  10.3501  10.3562  10.3836  10.3942  10.5719  10.6125
  0:     10.7387  10.7726  10.8810  10.9062  11.0901  11.1130  11.1661  11.1759
  0: 
  0:           k =-0.0666 0.0000 0.2674 ( 52622 PWs)   bands (ev):
  0: 
  0:    -17.1673 -17.1673 -17.1618 -17.1618 -15.0226 -15.0225 -15.0158 -15.0157
  0:    -14.9995 -14.9995 -14.9931 -14.9931 -13.2983 -13.2983 -13.2618 -13.2617
  0:    -12.5632 -12.5624 -12.5352 -12.5351 -12.5093 -12.5087 -12.4529 -12.4524
  0:    -12.4229 -12.4228 -12.4096 -12.4094 -11.9139 -11.9136 -11.8597 -11.8596
  0:    -11.5727 -11.5722 -11.3289 -11.3259 -11.2066 -11.2055 -11.1434 -11.1408
  0:    -10.9966 -10.9942 -10.9260 -10.9247  -9.4449  -9.4446  -9.3897  -9.3895
  0:     -7.8501  -7.8500  -7.7961  -7.7960  -6.5498  -6.5496  -6.5485  -6.5482
  0:     -6.3025  -6.3023  -6.2876  -6.2868  -4.9357  -4.9353  -4.8921  -4.8911
  0:     -4.7326  -4.7317  -4.7196  -4.7193  -3.5604  -3.5579  -3.4823  -3.4796
  0:     -3.0522  -3.0464  -2.7638  -2.7608  -2.7513  -2.7297  -2.6314  -2.6153
  0:     -2.1426  -2.1393  -2.0991  -2.0974  -1.5964  -1.5904  -1.5547  -1.5298
  0:     -1.4773  -1.4694  -1.2499  -1.2460  -0.8563  -0.8455  -0.4150  -0.3801
  0:     -0.2660  -0.1864  -0.1133  -0.0694  -0.0265   0.1281   0.1898   0.2080
  0:      0.2866   0.3118   0.4906   0.5093   0.5386   0.5720   0.6362   0.7224
  0:      0.7287   0.7631   0.7875   0.8731   0.9003   0.9311   0.9492   0.9916
  0:      1.0408   1.0457   1.0830   1.1321   1.1629   1.2088   1.2311   1.2790
  0:      1.3506   1.3690   1.4752   1.4934   1.5886   1.6452   1.7039   1.7524
  0:      4.9962   5.0534   5.4557   5.5051   5.9946   6.0125   6.4337   6.4770
  0:      6.5727   6.6097   6.6330   6.7236   6.8418   6.9018   6.9450   7.1159
  0:      7.5265   7.6154   8.2001   8.2024   8.4597   8.4682   8.6220   8.6344
  0:      8.7284   8.7502   8.7707   8.8024   9.0343   9.0643   9.0963   9.1038
  0:      9.1884   9.1955   9.5750   9.5885   9.6123   9.6566   9.7861   9.8306
  0:      9.8813   9.8937   9.9051   9.9312   9.9751   9.9897  10.1728  10.2106
  0:     10.3099  10.3349  10.3484  10.3583  10.3795  10.4092  10.6000  10.6386
  0:     10.7495  10.7860  10.8906  10.9138  11.1112  11.1331  11.1679  11.1729
  0: 
  0:           k =-0.0592 0.0000 0.2377 ( 52598 PWs)   bands (ev):
  0: 
  0:    -17.1674 -17.1674 -17.1617 -17.1617 -15.0226 -15.0225 -15.0158 -15.0157
  0:    -14.9995 -14.9995 -14.9931 -14.9931 -13.2983 -13.2983 -13.2618 -13.2616
  0:    -12.5630 -12.5622 -12.5352 -12.5352 -12.5092 -12.5087 -12.4529 -12.4524
  0:    -12.4229 -12.4228 -12.4096 -12.4094 -11.9121 -11.9118 -11.8610 -11.8609
  0:    -11.5739 -11.5734 -11.3324 -11.3297 -11.2071 -11.2061 -11.1401 -11.1376
  0:    -10.9945 -10.9921 -10.9255 -10.9242  -9.4425  -9.4422  -9.3923  -9.3921
  0:     -7.8503  -7.8502  -7.7977  -7.7976  -6.5508  -6.5506  -6.5485  -6.5482
  0:     -6.3042  -6.3040  -6.2869  -6.2862  -4.9378  -4.9375  -4.8888  -4.8879
  0:     -4.7330  -4.7322  -4.7227  -4.7225  -3.5585  -3.5559  -3.4831  -3.4804
  0:     -3.0548  -3.0496  -2.7605  -2.7566  -2.7504  -2.7295  -2.6276  -2.6130
  0:     -2.1428  -2.1390  -2.0999  -2.0979  -1.5925  -1.5851  -1.5577  -1.5321
  0:     -1.4795  -1.4715  -1.2449  -1.2414  -0.8592  -0.8485  -0.4143  -0.3816
  0:     -0.2656  -0.1828  -0.1044  -0.0624  -0.0261   0.1319   0.1914   0.2056
  0:      0.2959   0.3236   0.4894   0.5056   0.5324   0.5698   0.6396   0.7150
  0:      0.7323   0.7590   0.7915   0.8725   0.8941   0.9310   0.9541   0.9916
  0:      1.0414   1.0538   1.0876   1.1272   1.1575   1.2090   1.2349   1.2899
  0:      1.3485   1.3703   1.4742   1.4944   1.5767   1.6277   1.7024   1.7463
  0:      4.9954   5.0473   5.4495   5.4973   5.9923   6.0074   6.4305   6.4751
  0:      6.5680   6.6041   6.6255   6.7261   6.8379   6.9046   6.9435   7.1067
  0:      7.4791   7.5684   8.1854   8.1870   8.4643   8.4688   8.6398   8.6516
  0:      8.7521   8.7904   8.7968   8.8026   9.0188   9.0349   9.0855   9.1041
  0:      9.1685   9.1734   9.5852   9.6025   9.6229   9.6901   9.7740   9.8101
  0:      9.8787   9.8856   9.9261   9.9548  10.0175  10.0394  10.1853  10.2196
  0:     10.3025  10.3319  10.3481  10.3694  10.3845  10.4239  10.6270  10.6618
  0:     10.7606  10.7973  10.9044  10.9253  11.1119  11.1359  11.1559  11.1643
  0: 
  0:           k =-0.0518 0.0000 0.2080 ( 52608 PWs)   bands (ev):
  0: 
  0:    -17.1675 -17.1675 -17.1616 -17.1616 -15.0226 -15.0225 -15.0158 -15.0157
  0:    -14.9995 -14.9995 -14.9931 -14.9931 -13.2984 -13.2983 -13.2617 -13.2616
  0:    -12.5628 -12.5621 -12.5353 -12.5352 -12.5092 -12.5087 -12.4529 -12.4524
  0:    -12.4229 -12.4228 -12.4096 -12.4094 -11.9101 -11.9098 -11.8622 -11.8621
  0:    -11.5750 -11.5746 -11.3356 -11.3332 -11.2077 -11.2067 -11.1369 -11.1346
  0:    -10.9928 -10.9905 -10.9248 -10.9235  -9.4399  -9.4397  -9.3950  -9.3948
  0:     -7.8506  -7.8505  -7.7993  -7.7991  -6.5521  -6.5519  -6.5479  -6.5477
  0:     -6.3058  -6.3056  -6.2863  -6.2856  -4.9395  -4.9392  -4.8861  -4.8853
  0:     -4.7333  -4.7326  -4.7256  -4.7254  -3.5563  -3.5538  -3.4841  -3.4814
  0:     -3.0573  -3.0527  -2.7573  -2.7524  -2.7492  -2.7292  -2.6240  -2.6109
  0:     -2.1426  -2.1383  -2.1015  -2.0991  -1.5890  -1.5801  -1.5605  -1.5345
  0:     -1.4823  -1.4744  -1.2398  -1.2367  -0.8614  -0.8511  -0.4135  -0.3835
  0:     -0.2635  -0.1808  -0.0939  -0.0558  -0.0241   0.1288   0.1944   0.2086
  0:      0.3068   0.3355   0.4877   0.5019   0.5262   0.5677   0.6429   0.7057
  0:      0.7364   0.7545   0.7968   0.8715   0.8877   0.9293   0.9596   0.9914
  0:      1.0405   1.0589   1.0957   1.1201   1.1499   1.2077   1.2412   1.3005
  0:      1.3464   1.3717   1.4738   1.4963   1.5654   1.6099   1.7012   1.7401
  0:      4.9944   5.0404   5.4444   5.4898   5.9901   6.0025   6.4224   6.4660
  0:      6.5696   6.6038   6.6209   6.7281   6.8385   6.9101   6.9431   7.0972
  0:      7.4340   7.5226   8.1736   8.1750   8.4692   8.4708   8.6581   8.6687
  0:      8.7564   8.7902   8.8304   8.8466   8.9947   9.0013   9.0828   9.1063
  0:      9.1527   9.1566   9.5788   9.6039   9.6466   9.7161   9.7719   9.7971
  0:      9.8771   9.8814   9.9419   9.9685  10.0584  10.0920  10.1975  10.2272
  0:     10.2952  10.3277  10.3570  10.3757  10.4052  10.4397  10.6493  10.6797
  0:     10.7729  10.8082  10.9205  10.9405  11.0970  11.1233  11.1379  11.1441
  0: 
  0:           k =-0.0444 0.0000 0.1783 ( 52628 PWs)   bands (ev):
  0: 
  0:    -17.1676 -17.1676 -17.1615 -17.1615 -15.0226 -15.0225 -15.0158 -15.0157
  0:    -14.9995 -14.9995 -14.9931 -14.9931 -13.2984 -13.2983 -13.2617 -13.2615
  0:    -12.5626 -12.5619 -12.5353 -12.5352 -12.5092 -12.5087 -12.4529 -12.4524
  0:    -12.4229 -12.4228 -12.4096 -12.4094 -11.9082 -11.9078 -11.8635 -11.8634
  0:    -11.5761 -11.5757 -11.3385 -11.3364 -11.2082 -11.2073 -11.1340 -11.1319
  0:    -10.9914 -10.9892 -10.9240 -10.9228  -9.4373  -9.4371  -9.3977  -9.3975
  0:     -7.8507  -7.8506  -7.8007  -7.8005  -6.5534  -6.5532  -6.5473  -6.5471
  0:     -6.3073  -6.3072  -6.2857  -6.2851  -4.9407  -4.9405  -4.8841  -4.8834
  0:     -4.7335  -4.7328  -4.7281  -4.7281  -3.5540  -3.5517  -3.4852  -3.4826
  0:     -3.0596  -3.0556  -2.7543  -2.7492  -2.7470  -2.7289  -2.6205  -2.6091
  0:     -2.1419  -2.1371  -2.1037  -2.1010  -1.5857  -1.5754  -1.5628  -1.5369
  0:     -1.4855  -1.4780  -1.2349  -1.2321  -0.8627  -0.8533  -0.4126  -0.3858
  0:     -0.2599  -0.1809  -0.0822  -0.0499  -0.0203   0.1192   0.2015   0.2139
  0:      0.3183   0.3464   0.4858   0.4983   0.5207   0.5654   0.6459   0.6957
  0:      0.7397   0.7504   0.8034   0.8702   0.8813   0.9262   0.9650   0.9912
  0:      1.0393   1.0615   1.1037   1.1142   1.1407   1.2057   1.2485   1.3086
  0:      1.3459   1.3732   1.4741   1.4989   1.5552   1.5924   1.7003   1.7340
  0:      4.9934   5.0330   5.4405   5.4828   5.9880   5.9982   6.4109   6.4514
  0:      6.5762   6.6069   6.6199   6.7289   6.8436   6.9184   6.9442   7.0880
  0:      7.3919   7.4782   8.1648   8.1663   8.4732   8.4750   8.6770   8.6861
  0:      8.7578   8.7852   8.8624   8.8821   8.9679   8.9694   9.0866   9.1101
  0:      9.1404   9.1447   9.5657   9.5937   9.6692   9.7267   9.7829   9.8024
  0:      9.8769   9.8816   9.9505   9.9759  10.0909  10.1397  10.2099  10.2355
  0:     10.2892  10.3235  10.3721  10.3852  10.4356  10.4598  10.6644  10.6911
  0:     10.7878  10.8205  10.9356  10.9568  11.0737  11.0964  11.1160  11.1289
  0: 
  0:           k =-0.0370 0.0000 0.1485 ( 52612 PWs)   bands (ev):
  0: 
  0:    -17.1677 -17.1677 -17.1614 -17.1614 -15.0225 -15.0225 -15.0158 -15.0157
  0:    -14.9995 -14.9995 -14.9931 -14.9931 -13.2984 -13.2983 -13.2617 -13.2615
  0:    -12.5624 -12.5618 -12.5353 -12.5353 -12.5091 -12.5087 -12.4528 -12.4525
  0:    -12.4229 -12.4228 -12.4096 -12.4094 -11.9063 -11.9059 -11.8647 -11.8646
  0:    -11.5770 -11.5767 -11.3410 -11.3393 -11.2087 -11.2080 -11.1313 -11.1294
  0:    -10.9903 -10.9883 -10.9232 -10.9222  -9.4347  -9.4345  -9.4004  -9.4002
  0:     -7.8509  -7.8508  -7.8019  -7.8018  -6.5545  -6.5544  -6.5467  -6.5465
  0:     -6.3087  -6.3085  -6.2852  -6.2847  -4.9416  -4.9414  -4.8826  -4.8820
  0:     -4.7337  -4.7330  -4.7305  -4.7302  -3.5517  -3.5496  -3.4863  -3.4840
  0:     -3.0617  -3.0583  -2.7516  -2.7478  -2.7432  -2.7284  -2.6173  -2.6076
  0:     -2.1406  -2.1356  -2.1066  -2.1035  -1.5829  -1.5719  -1.5638  -1.5391
  0:     -1.4888  -1.4820  -1.2302  -1.2279  -0.8635  -0.8551  -0.4115  -0.3885
  0:     -0.2549  -0.1831  -0.0702  -0.0446  -0.0146   0.1062   0.2108   0.2202
  0:      0.3295   0.3555   0.4837   0.4953   0.5163   0.5627   0.6483   0.6860
  0:      0.7405   0.7484   0.8116   0.8687   0.8753   0.9212   0.9699   0.9911
  0:      1.0382   1.0634   1.0988   1.1208   1.1310   1.2030   1.2560   1.3118
  0:      1.3491   1.3746   1.4750   1.5014   1.5465   1.5758   1.6999   1.7281
  0:      4.9925   5.0255   5.4380   5.4759   5.9863   5.9946   6.3983   6.4340
  0:      6.5853   6.6096   6.6237   6.7273   6.8528   6.9276   6.9480   7.0794
  0:      7.3537   7.4357   8.1587   8.1604   8.4769   8.4801   8.6958   8.7034
  0:      8.7591   8.7812   8.8805   8.9006   8.9445   8.9462   9.0939   9.1137
  0:      9.1334   9.1388   9.5512   9.5790   9.6849   9.7306   9.7948   9.8229
  0:      9.8785   9.8856   9.9545   9.9781  10.1142  10.1740  10.2233  10.2460
  0:     10.2867  10.3196  10.3892  10.4009  10.4720  10.4879  10.6726  10.6967
  0:     10.8049  10.8335  10.9482  10.9710  11.0474  11.0641  11.0946  11.1098
  0: 
  0:           k =-0.0296 0.0000 0.1188 ( 52628 PWs)   bands (ev):
  0: 
  0:    -17.1678 -17.1678 -17.1614 -17.1614 -15.0225 -15.0225 -15.0158 -15.0157
  0:    -14.9995 -14.9995 -14.9931 -14.9931 -13.2984 -13.2983 -13.2616 -13.2615
  0:    -12.5622 -12.5618 -12.5354 -12.5353 -12.5091 -12.5088 -12.4528 -12.4525
  0:    -12.4229 -12.4228 -12.4096 -12.4094 -11.9044 -11.9041 -11.8659 -11.8658
  0:    -11.5778 -11.5775 -11.3431 -11.3417 -11.2092 -11.2085 -11.1289 -11.1274
  0:    -10.9894 -10.9877 -10.9224 -10.9216  -9.4321  -9.4320  -9.4030  -9.4029
  0:     -7.8510  -7.8510  -7.8029  -7.8028  -6.5554  -6.5553  -6.5461  -6.5460
  0:     -6.3098  -6.3097  -6.2847  -6.2843  -4.9422  -4.9420  -4.8816  -4.8811
  0:     -4.7341  -4.7331  -4.7324  -4.7317  -3.5495  -3.5476  -3.4874  -3.4854
  0:     -3.0633  -3.0606  -2.7494  -2.7468  -2.7394  -2.7280  -2.6144  -2.6065
  0:     -2.1387  -2.1336  -2.1100  -2.1065  -1.5806  -1.5712  -1.5619  -1.5410
  0:     -1.4920  -1.4861  -1.2261  -1.2242  -0.8636  -0.8566  -0.4102  -0.3913
  0:     -0.2487  -0.1871  -0.0587  -0.0399  -0.0071   0.0920   0.2203   0.2266
  0:      0.3396   0.3620   0.4815   0.4927   0.5142   0.5592   0.6501   0.6773
  0:      0.7391   0.7485   0.8210   0.8671   0.8700   0.9138   0.9742   0.9913
  0:      1.0380   1.0653   1.0898   1.1186   1.1337   1.1994   1.2634   1.3101
  0:      1.3557   1.3761   1.4761   1.5030   1.5400   1.5610   1.7000   1.7226
  0:      4.9919   5.0183   5.4369   5.4693   5.9850   5.9918   6.3864   6.4162
  0:      6.5948   6.6112   6.6313   6.7229   6.8651   6.9332   6.9581   7.0715
  0:      7.3207   7.3955   8.1551   8.1568   8.4807   8.4847   8.7136   8.7199
  0:      8.7612   8.7787   8.8802   8.8917   8.9351   8.9397   9.0998   9.1126
  0:      9.1325   9.1413   9.5413   9.5662   9.6941   9.7329   9.8063   9.8360
  0:      9.8851   9.8925   9.9591   9.9779  10.1290  10.1867  10.2404  10.2584
  0:     10.2889  10.3164  10.4080  10.4199  10.5115  10.5237  10.6770  10.6987
  0:     10.8220  10.8443  10.9589  10.9814  11.0211  11.0328  11.0690  11.0848
  0: 
  0:           k =-0.0222 0.0000 0.0891 ( 52640 PWs)   bands (ev):
  0: 
  0:    -17.1679 -17.1679 -17.1613 -17.1613 -15.0225 -15.0225 -15.0158 -15.0158
  0:    -14.9995 -14.9995 -14.9931 -14.9931 -13.2984 -13.2983 -13.2616 -13.2615
  0:    -12.5620 -12.5617 -12.5354 -12.5353 -12.5091 -12.5088 -12.4527 -12.4525
  0:    -12.4229 -12.4228 -12.4096 -12.4094 -11.9029 -11.9026 -11.8670 -11.8669
  0:    -11.5785 -11.5783 -11.3447 -11.3436 -11.2095 -11.2091 -11.1269 -11.1258
  0:    -10.9886 -10.9873 -10.9217 -10.9211  -9.4297  -9.4296  -9.4055  -9.4054
  0:     -7.8511  -7.8511  -7.8037  -7.8036  -6.5562  -6.5561  -6.5457  -6.5456
  0:     -6.3108  -6.3107  -6.2843  -6.2840  -4.9425  -4.9424  -4.8809  -4.8806
  0:     -4.7349  -4.7342  -4.7329  -4.7323  -3.5474  -3.5460  -3.4884  -3.4868
  0:     -3.0646  -3.0626  -2.7477  -2.7460  -2.7360  -2.7278  -2.6118  -2.6059
  0:     -2.1364  -2.1312  -2.1137  -2.1099  -1.5789  -1.5723  -1.5583  -1.5427
  0:     -1.4948  -1.4899  -1.2226  -1.2212  -0.8633  -0.8579  -0.4088  -0.3943
  0:     -0.2415  -0.1929  -0.0488  -0.0357   0.0021   0.0776   0.2286   0.2326
  0:      0.3480   0.3657   0.4798   0.4900   0.5153   0.5545   0.6515   0.6702
  0:      0.7379   0.7485   0.8314   0.8653   0.8661   0.9044   0.9779   0.9913
  0:      1.0395   1.0674   1.0813   1.1081   1.1445   1.1946   1.2704   1.3059
  0:      1.3632   1.3777   1.4774   1.5026   1.5357   1.5489   1.7007   1.7177
  0:      4.9918   5.0115   5.4374   5.4629   5.9843   5.9896   6.3767   6.3997
  0:      6.6030   6.6127   6.6414   6.7155   6.8794   6.9340   6.9743   7.0638
  0:      7.2947   7.3584   8.1533   8.1549   8.4844   8.4884   8.7291   8.7343
  0:      8.7646   8.7779   8.8669   8.8715   8.9341   8.9421   9.1018   9.1117
  0:      9.1325   9.1464   9.5402   9.5605   9.6986   9.7326   9.8128   9.8352
  0:      9.8961   9.9009   9.9679   9.9790  10.1373  10.1833  10.2564  10.2706
  0:     10.2948  10.3143  10.4280  10.4384  10.5517  10.5620  10.6812  10.6995
  0:     10.8367  10.8512  10.9675  10.9860  10.9980  11.0048  11.0402  11.0559
  0: 
  0:           k =-0.0148 0.0000 0.0594 ( 52649 PWs)   bands (ev):
  0: 
  0:    -17.1679 -17.1679 -17.1613 -17.1613 -15.0225 -15.0225 -15.0158 -15.0158
  0:    -14.9995 -14.9995 -14.9931 -14.9931 -13.2984 -13.2983 -13.2616 -13.2615
  0:    -12.5619 -12.5617 -12.5354 -12.5353 -12.5090 -12.5089 -12.4527 -12.4525
  0:    -12.4229 -12.4229 -12.4095 -12.4095 -11.9016 -11.9014 -11.8678 -11.8677
  0:    -11.5790 -11.5788 -11.3458 -11.3451 -11.2098 -11.2095 -11.1254 -11.1246
  0:    -10.9881 -10.9871 -10.9212 -10.9207  -9.4275  -9.4274  -9.4077  -9.4076
  0:     -7.8512  -7.8512  -7.8043  -7.8042  -6.5567  -6.5567  -6.5454  -6.5453
  0:     -6.3115  -6.3114  -6.2841  -6.2839  -4.9427  -4.9426  -4.8805  -4.8803
  0:     -4.7358  -4.7354  -4.7328  -4.7325  -3.5458  -3.5448  -3.4891  -3.4879
  0:     -3.0655  -3.0641  -2.7465  -2.7455  -2.7332  -2.7278  -2.6096  -2.6056
  0:     -2.1335  -2.1284  -2.1176  -2.1136  -1.5776  -1.5736  -1.5545  -1.5442
  0:     -1.4968  -1.4933  -1.2200  -1.2190  -0.8627  -0.8590  -0.4070  -0.3972
  0:     -0.2335  -0.1999  -0.0410  -0.0325   0.0127   0.0635   0.2350   0.2376
  0:      0.3546   0.3667   0.4791   0.4870   0.5196   0.5486   0.6529   0.6647
  0:      0.7381   0.7473   0.8424   0.8626   0.8648   0.8935   0.9812   0.9908
  0:      1.0430   1.0679   1.0754   1.0981   1.1551   1.1888   1.2769   1.3005
  0:      1.3699   1.3792   1.4794   1.4994   1.5336   1.5406   1.7019   1.7133
  0:      4.9925   5.0056   5.4392   5.4569   5.9841   5.9878   6.3702   6.3859
  0:      6.6089   6.6140   6.6533   6.7055   6.8939   6.9317   6.9929   7.0550
  0:      7.2783   7.3257   8.1528   8.1539   8.4876   8.4907   8.7411   8.7451
  0:      8.7698   8.7787   8.8517   8.8536   8.9360   8.9428   9.1028   9.1148
  0:      9.1290   9.1465   9.5476   9.5623   9.7002   9.7276   9.8136   9.8282
  0:      9.9052   9.9089   9.9789   9.9831  10.1421  10.1737  10.2678  10.2792
  0:     10.3014  10.3131  10.4459  10.4535  10.5886  10.5960  10.6880  10.7014
  0:     10.8468  10.8542  10.9677  10.9721  10.9825  10.9954  11.0144  11.0288
  0: 
  0:           k =-0.0074 0.0000 0.0297 ( 52643 PWs)   bands (ev):
  0: 
  0:    -17.1680 -17.1680 -17.1613 -17.1613 -15.0225 -15.0225 -15.0158 -15.0158
  0:    -14.9995 -14.9995 -14.9931 -14.9931 -13.2984 -13.2984 -13.2616 -13.2615
  0:    -12.5618 -12.5617 -12.5354 -12.5354 -12.5090 -12.5089 -12.4527 -12.4526
  0:    -12.4229 -12.4229 -12.4095 -12.4095 -11.9007 -11.9006 -11.8683 -11.8683
  0:    -11.5792 -11.5791 -11.3464 -11.3461 -11.2099 -11.2097 -11.1244 -11.1240
  0:    -10.9876 -10.9872 -10.9208 -10.9206  -9.4260  -9.4259  -9.4093  -9.4092
  0:     -7.8512  -7.8512  -7.8046  -7.8046  -6.5570  -6.5570  -6.5452  -6.5451
  0:     -6.3119  -6.3119  -6.2839  -6.2838  -4.9428  -4.9427  -4.8803  -4.8802
  0:     -4.7363  -4.7362  -4.7327  -4.7325  -3.5446  -3.5441  -3.4894  -3.4888
  0:     -3.0659  -3.0652  -2.7457  -2.7452  -2.7309  -2.7283  -2.6079  -2.6059
  0:     -2.1302  -2.1259  -2.1210  -2.1172  -1.5766  -1.5747  -1.5510  -1.5459
  0:     -1.4977  -1.4959  -1.2182  -1.2177  -0.8619  -0.8600  -0.4050  -0.4000
  0:     -0.2251  -0.2079  -0.0355  -0.0312   0.0244   0.0499   0.2393   0.2407
  0:      0.3595   0.3657   0.4796   0.4840   0.5261   0.5415   0.6547   0.6604
  0:      0.7396   0.7450   0.8527   0.8607   0.8653   0.8819   0.9842   0.9893
  0:      1.0484   1.0625   1.0770   1.0893   1.1649   1.1818   1.2830   1.2948
  0:      1.3751   1.3796   1.4826   1.4938   1.5331   1.5360   1.7038   1.7095
  0:      4.9942   5.0007   5.4423   5.4513   5.9845   5.9864   6.3677   6.3756
  0:      6.6125   6.6146   6.6666   6.6935   6.9073   6.9265   7.0117   7.0437
  0:      7.2735   7.2991   8.1529   8.1535   8.4900   8.4917   8.7488   8.7510
  0:      8.7756   8.7799   8.8402   8.8411   8.9383   8.9420   9.1064   9.1212
  0:      9.1221   9.1404   9.5588   9.5669   9.7020   9.7179   9.8131   9.8208
  0:      9.9113   9.9139   9.9872   9.9882  10.1469  10.1630  10.2759  10.2825
  0:     10.3068  10.3120  10.4585  10.4624  10.6156  10.6190  10.6978  10.7047
  0:     10.8499  10.8541  10.9524  10.9553  10.9812  10.9904  11.0032  11.0109
  0: 
  0:           k = 0.0000 0.0000 0.0000 ( 52655 PWs)   bands (ev):
  0: 
  0:    -17.1680 -17.1680 -17.1612 -17.1612 -15.0225 -15.0225 -15.0158 -15.0158
  0:    -14.9995 -14.9995 -14.9931 -14.9931 -13.2984 -13.2984 -13.2616 -13.2616
  0:    -12.5618 -12.5618 -12.5354 -12.5354 -12.5089 -12.5089 -12.4526 -12.4526
  0:    -12.4229 -12.4229 -12.4095 -12.4095 -11.9004 -11.9004 -11.8685 -11.8685
  0:    -11.5793 -11.5793 -11.3465 -11.3465 -11.2099 -11.2099 -11.1239 -11.1239
  0:    -10.9873 -10.9873 -10.9206 -10.9206  -9.4253  -9.4253  -9.4098  -9.4098
  0:     -7.8512  -7.8512  -7.8048  -7.8048  -6.5571  -6.5571  -6.5451  -6.5451
  0:     -6.3120  -6.3120  -6.2838  -6.2838  -4.9428  -4.9428  -4.8802  -4.8802
  0:     -4.7365  -4.7365  -4.7326  -4.7326  -3.5440  -3.5440  -3.4893  -3.4893
  0:     -3.0658  -3.0658  -2.7453  -2.7453  -2.7293  -2.7293  -2.6067  -2.6067
  0:     -2.1268  -2.1268  -2.1205  -2.1205  -1.5757  -1.5757  -1.5482  -1.5482
  0:     -1.4974  -1.4974  -1.2175  -1.2175  -0.8610  -0.8610  -0.4026  -0.4026
  0:     -0.2164  -0.2164  -0.0322  -0.0322   0.0368   0.0368   0.2413   0.2413
  0:      0.3632   0.3632   0.4814   0.4814   0.5337   0.5337   0.6572   0.6572
  0:      0.7422   0.7422   0.8587   0.8587   0.8711   0.8711   0.9870   0.9870
  0:      1.0552   1.0552   1.0822   1.0822   1.1738   1.1738   1.2889   1.2889
  0:      1.3784   1.3784   1.4876   1.4876   1.5339   1.5339   1.7063   1.7063
  0:      4.9969   4.9969   5.4464   5.4464   5.9853   5.9853   6.3694   6.3694
  0:      6.6143   6.6143   6.6803   6.6803   6.9184   6.9184   7.0291   7.0291
  0:      7.2809   7.2809   8.1532   8.1532   8.4915   8.4915   8.7522   8.7522
  0:      8.7794   8.7794   8.8363   8.8363   8.9404   8.9404   9.1132   9.1132
  0:      9.1309   9.1309   9.5667   9.5667   9.7077   9.7077   9.8153   9.8153
  0:      9.9145   9.9145   9.9904   9.9904  10.1537  10.1537  10.2810  10.2810
  0:     10.3102  10.3102  10.4641  10.4641  10.6262  10.6262  10.7051  10.7051
  0:     10.8512  10.8512  10.9470  10.9470  10.9831  10.9831  11.0041  11.0041
  0: 
  0:           k = 0.0277 0.0000 0.0000 ( 52652 PWs)   bands (ev):
  0: 
  0:    -17.1680 -17.1680 -17.1613 -17.1613 -15.0225 -15.0225 -15.0158 -15.0158
  0:    -14.9995 -14.9995 -14.9931 -14.9931 -13.2984 -13.2983 -13.2616 -13.2616
  0:    -12.5618 -12.5617 -12.5354 -12.5354 -12.5090 -12.5089 -12.4527 -12.4526
  0:    -12.4229 -12.4229 -12.4095 -12.4095 -11.9009 -11.9008 -11.8681 -11.8680
  0:    -11.5793 -11.5792 -11.3463 -11.3459 -11.2100 -11.2099 -11.1246 -11.1241
  0:    -10.9876 -10.9870 -10.9209 -10.9207  -9.4262  -9.4261  -9.4091  -9.4090
  0:     -7.8513  -7.8512  -7.8046  -7.8045  -6.5571  -6.5570  -6.5450  -6.5449
  0:     -6.3120  -6.3120  -6.2838  -6.2837  -4.9434  -4.9433  -4.8795  -4.8791
  0:     -4.7364  -4.7360  -4.7332  -4.7327  -3.5442  -3.5440  -3.4894  -3.4892
  0:     -3.0662  -3.0650  -2.7465  -2.7440  -2.7296  -2.7292  -2.6079  -2.6061
  0:     -2.1298  -2.1257  -2.1218  -2.1175  -1.5776  -1.5745  -1.5487  -1.5480
  0:     -1.4980  -1.4969  -1.2184  -1.2179  -0.8608  -0.8602  -0.4051  -0.4002
  0:     -0.2175  -0.2153  -0.0367  -0.0302   0.0340   0.0408   0.2364   0.2466
  0:      0.3548   0.3718   0.4779   0.4832   0.5249   0.5434   0.6529   0.6623
  0:      0.7343   0.7508   0.8560   0.8610   0.8666   0.8776   0.9842   0.9910
  0:      1.0472   1.0626   1.0777   1.0861   1.1717   1.1750   1.2813   1.2959
  0:      1.3723   1.3822   1.4839   1.4897   1.5329   1.5373   1.7051   1.7071
  0:      4.9939   5.0008   5.4416   5.4537   5.9824   5.9873   6.3613   6.3786
  0:      6.6109   6.6202   6.6785   6.6822   6.9127   6.9256   7.0233   7.0353
  0:      7.2777   7.2913   8.1541   8.1553   8.4898   8.4928   8.7425   8.7486
  0:      8.7622   8.7693   8.8405   8.8448   8.9471   8.9585   9.1048   9.1222
  0:      9.1280   9.1434   9.5613   9.5706   9.6921   9.7135   9.8096   9.8213
  0:      9.9141   9.9147   9.9790  10.0069  10.1488  10.1535  10.2775  10.2861
  0:     10.3008  10.3108  10.4568  10.4603  10.6279  10.6286  10.7028  10.7057
  0:     10.8486  10.8506  10.9318  10.9417  10.9804  10.9938  11.0069  11.0197
  0: 
  0:           k = 0.0553 0.0000 0.0000 ( 52622 PWs)   bands (ev):
  0: 
  0:    -17.1679 -17.1679 -17.1613 -17.1613 -15.0225 -15.0225 -15.0158 -15.0158
  0:    -14.9995 -14.9995 -14.9931 -14.9931 -13.2984 -13.2983 -13.2616 -13.2616
  0:    -12.5619 -12.5617 -12.5354 -12.5353 -12.5091 -12.5088 -12.4527 -12.4526
  0:    -12.4229 -12.4229 -12.4095 -12.4095 -11.9020 -11.9019 -11.8668 -11.8666
  0:    -11.5792 -11.5791 -11.3454 -11.3446 -11.2101 -11.2101 -11.1261 -11.1251
  0:    -10.9878 -10.9867 -10.9214 -10.9210  -9.4282  -9.4281  -9.4070  -9.4069
  0:     -7.8513  -7.8512  -7.8040  -7.8039  -6.5569  -6.5569  -6.5447  -6.5446
  0:     -6.3118  -6.3117  -6.2838  -6.2837  -4.9452  -4.9450  -4.8769  -4.8762
  0:     -4.7363  -4.7352  -4.7346  -4.7332  -3.5445  -3.5441  -3.4895  -3.4891
  0:     -3.0661  -3.0636  -2.7476  -2.7426  -2.7302  -2.7294  -2.6097  -2.6060
  0:     -2.1329  -2.1284  -2.1196  -2.1144  -1.5800  -1.5742  -1.5495  -1.5481
  0:     -1.4985  -1.4963  -1.2206  -1.2195  -0.8595  -0.8583  -0.4076  -0.3978
  0:     -0.2185  -0.2142  -0.0435  -0.0310   0.0324   0.0457   0.2319   0.2521
  0:      0.3468   0.3804   0.4735   0.4825   0.5180   0.5532   0.6495   0.6683
  0:      0.7273   0.7596   0.8526   0.8619   0.8655   0.8857   0.9826   0.9958
  0:      1.0388   1.0682   1.0739   1.0894   1.1691   1.1746   1.2732   1.3021
  0:      1.3640   1.3840   1.4804   1.4879   1.5334   1.5444   1.7037   1.7076
  0:      4.9917   5.0056   5.4395   5.4634   5.9788   5.9883   6.3545   6.3885
  0:      6.6103   6.6281   6.6774   6.6841   6.9089   6.9339   7.0183   7.0418
  0:      7.2820   7.3084   8.1582   8.1606   8.4876   8.4938   8.7220   8.7269
  0:      8.7346   8.7456   8.8556   8.8618   8.9689   8.9859   9.1050   9.1217
  0:      9.1462   9.1602   9.5551   9.5715   9.6720   9.7077   9.8039   9.8241
  0:      9.9134   9.9156   9.9740  10.0268  10.1386  10.1483  10.2696  10.2816
  0:     10.2940  10.3104  10.4403  10.4469  10.6324  10.6334  10.6985  10.7037
  0:     10.8440  10.8474  10.9109  10.9216  10.9882  10.9979  11.0284  11.0412
  0: 
  0:           k = 0.0830 0.0000 0.0000 ( 52635 PWs)   bands (ev):
  0: 
  0:    -17.1679 -17.1679 -17.1613 -17.1613 -15.0225 -15.0225 -15.0158 -15.0158
  0:    -14.9995 -14.9995 -14.9931 -14.9931 -13.2983 -13.2983 -13.2617 -13.2616
  0:    -12.5621 -12.5618 -12.5354 -12.5353 -12.5091 -12.5088 -12.4528 -12.4525
  0:    -12.4229 -12.4229 -12.4096 -12.4094 -11.9037 -11.9035 -11.8649 -11.8646
  0:    -11.5791 -11.5789 -11.3438 -11.3425 -11.2104 -11.2103 -11.1283 -11.1269
  0:    -10.9880 -10.9865 -10.9222 -10.9216  -9.4309  -9.4307  -9.4043  -9.4042
  0:     -7.8513  -7.8512  -7.8030  -7.8029  -6.5567  -6.5566  -6.5443  -6.5441
  0:     -6.3115  -6.3114  -6.2839  -6.2837  -4.9477  -4.9476  -4.8729  -4.8718
  0:     -4.7376  -4.7370  -4.7335  -4.7326  -3.5449  -3.5443  -3.4895  -3.4889
  0:     -3.0655  -3.0619  -2.7487  -2.7412  -2.7309  -2.7298  -2.6120  -2.6066
  0:     -2.1361  -2.1317  -2.1167  -2.1115  -1.5828  -1.5751  -1.5506  -1.5485
  0:     -1.4989  -1.4956  -1.2239  -1.2224  -0.8572  -0.8554  -0.4100  -0.3957
  0:     -0.2194  -0.2132  -0.0521  -0.0343   0.0322   0.0513   0.2280   0.2578
  0:      0.3395   0.3886   0.4682   0.4792   0.5139   0.5626   0.6465   0.6752
  0:      0.7215   0.7682   0.8487   0.8619   0.8670   0.8952   0.9824   1.0010
  0:      1.0305   1.0655   1.0772   1.0923   1.1665   1.1721   1.2650   1.3077
  0:      1.3532   1.3839   1.4769   1.4826   1.5355   1.5551   1.7020   1.7078
  0:      4.9902   5.0111   5.4400   5.4751   5.9745   5.9884   6.3493   6.3987
  0:      6.6124   6.6370   6.6779   6.6862   6.9072   6.9428   7.0143   7.0482
  0:      7.2940   7.3319   8.1652   8.1689   8.4847   8.4942   8.6847   8.6949
  0:      8.7108   8.7283   8.8759   8.8823   8.9873   9.0060   9.1162   9.1297
  0:      9.1710   9.1826   9.5486   9.5670   9.6532   9.6933   9.7955   9.8195
  0:      9.9129   9.9175   9.9766  10.0475  10.1233  10.1385  10.2492  10.2560
  0:     10.3038  10.3194  10.4183  10.4271  10.6365  10.6376  10.6918  10.6984
  0:     10.8383  10.8435  10.8900  10.8989  10.9954  11.0051  11.0498  11.0629
  0: 
  0:           k = 0.1106 0.0000 0.0000 ( 52629 PWs)   bands (ev):
  0: 
  0:    -17.1679 -17.1679 -17.1613 -17.1613 -15.0226 -15.0225 -15.0158 -15.0157
  0:    -14.9995 -14.9995 -14.9931 -14.9931 -13.2983 -13.2983 -13.2618 -13.2617
  0:    -12.5623 -12.5619 -12.5354 -12.5353 -12.5092 -12.5087 -12.4528 -12.4525
  0:    -12.4229 -12.4229 -12.4096 -12.4094 -11.9057 -11.9055 -11.8626 -11.8623
  0:    -11.5789 -11.5787 -11.3414 -11.3397 -11.2107 -11.2106 -11.1311 -11.1293
  0:    -10.9885 -10.9866 -10.9230 -10.9223  -9.4338  -9.4336  -9.4013  -9.4012
  0:     -7.8513  -7.8512  -7.8017  -7.8016  -6.5563  -6.5562  -6.5437  -6.5435
  0:     -6.3111  -6.3109  -6.2839  -6.2836  -4.9508  -4.9507  -4.8677  -4.8664
  0:     -4.7404  -4.7401  -4.7314  -4.7308  -3.5454  -3.5446  -3.4896  -3.4888
  0:     -3.0645  -3.0597  -2.7498  -2.7398  -2.7318  -2.7304  -2.6150  -2.6077
  0:     -2.1393  -2.1351  -2.1139  -2.1087  -1.5859  -1.5774  -1.5521  -1.5487
  0:     -1.4991  -1.4948  -1.2283  -1.2264  -0.8538  -0.8515  -0.4123  -0.3940
  0:     -0.2203  -0.2125  -0.0618  -0.0397   0.0334   0.0576   0.2245   0.2634
  0:      0.3328   0.3958   0.4623   0.4744   0.5121   0.5714   0.6440   0.6824
  0:      0.7172   0.7758   0.8451   0.8626   0.8693   0.9052   0.9833   1.0051
  0:      1.0237   1.0598   1.0825   1.0951   1.1642   1.1672   1.2572   1.3129
  0:      1.3400   1.3825   1.4698   1.4770   1.5402   1.5679   1.7002   1.7078
  0:      4.9892   5.0172   5.4432   5.4886   5.9699   5.9876   6.3460   6.4091
  0:      6.6169   6.6451   6.6815   6.6893   6.9074   6.9519   7.0114   7.0544
  0:      7.3136   7.3614   8.1751   8.1802   8.4802   8.4933   8.6471   8.6583
  0:      8.6925   8.7125   8.8981   8.9040   8.9957   9.0139   9.1323   9.1433
  0:      9.2048   9.2140   9.5419   9.5557   9.6397   9.6742   9.7830   9.8069
  0:      9.9133   9.9192   9.9859  10.0651  10.1037  10.1242  10.2182  10.2271
  0:     10.3175  10.3366  10.3945  10.4041  10.6382  10.6388  10.6832  10.6904
  0:     10.8296  10.8394  10.8724  10.8753  11.0001  11.0105  11.0671  11.0803
  0: 
  0:           k = 0.1383 0.0000 0.0000 ( 52608 PWs)   bands (ev):
  0: 
  0:    -17.1678 -17.1678 -17.1613 -17.1613 -15.0226 -15.0225 -15.0158 -15.0157
  0:    -14.9995 -14.9995 -14.9931 -14.9931 -13.2983 -13.2982 -13.2619 -13.2618
  0:    -12.5625 -12.5620 -12.5354 -12.5352 -12.5093 -12.5087 -12.4528 -12.4525
  0:    -12.4229 -12.4228 -12.4096 -12.4094 -11.9078 -11.9077 -11.8600 -11.8597
  0:    -11.5786 -11.5783 -11.3384 -11.3363 -11.2111 -11.2109 -11.1344 -11.1323
  0:    -10.9893 -10.9872 -10.9239 -10.9231  -9.4368  -9.4366  -9.3982  -9.3981
  0:     -7.8512  -7.8511  -7.8001  -7.7999  -6.5558  -6.5557  -6.5429  -6.5426
  0:     -6.3105  -6.3103  -6.2839  -6.2836  -4.9540  -4.9539  -4.8616  -4.8602
  0:     -4.7443  -4.7438  -4.7289  -4.7283  -3.5460  -3.5451  -3.4896  -3.4887
  0:     -3.0630  -3.0571  -2.7509  -2.7384  -2.7327  -2.7311  -2.6184  -2.6094
  0:     -2.1424  -2.1385  -2.1113  -2.1061  -1.5896  -1.5810  -1.5541  -1.5487
  0:     -1.4989  -1.4937  -1.2338  -1.2315  -0.8495  -0.8466  -0.4145  -0.3927
  0:     -0.2212  -0.2123  -0.0721  -0.0467   0.0358   0.0643   0.2216   0.2687
  0:      0.3268   0.4012   0.4563   0.4700   0.5115   0.5791   0.6419   0.6896
  0:      0.7145   0.7813   0.8424   0.8635   0.8722   0.9151   0.9850   1.0044
  0:      1.0219   1.0540   1.0870   1.0982   1.1595   1.1628   1.2498   1.3177
  0:      1.3251   1.3798   1.4596   1.4712   1.5482   1.5819   1.6985   1.7080
  0:      4.9884   5.0235   5.4488   5.5033   5.9652   5.9861   6.3449   6.4194
  0:      6.6228   6.6509   6.6883   6.6959   6.9095   6.9607   7.0097   7.0601
  0:      7.3405   7.3964   8.1876   8.1941   8.4731   8.4903   8.6138   8.6266
  0:      8.6756   8.6978   8.9203   8.9254   8.9974   9.0141   9.1443   9.1559
  0:      9.2466   9.2544   9.5330   9.5419   9.6310   9.6528   9.7671   9.7882
  0:      9.9146   9.9199   9.9980  10.0713  10.0856  10.1061  10.1839  10.1966
  0:     10.3348  10.3580  10.3719  10.3810  10.6362  10.6370  10.6751  10.6816
  0:     10.8140  10.8317  10.8522  10.8598  11.0007  11.0117  11.0772  11.0903
  0: 
  0:           k = 0.1659 0.0000 0.0000 ( 52626 PWs)   bands (ev):
  0: 
  0:    -17.1677 -17.1677 -17.1614 -17.1614 -15.0226 -15.0225 -15.0158 -15.0157
  0:    -14.9995 -14.9995 -14.9931 -14.9931 -13.2982 -13.2982 -13.2620 -13.2619
  0:    -12.5627 -12.5621 -12.5354 -12.5352 -12.5093 -12.5087 -12.4529 -12.4525
  0:    -12.4229 -12.4228 -12.4096 -12.4094 -11.9100 -11.9098 -11.8573 -11.8571
  0:    -11.5782 -11.5779 -11.3347 -11.3323 -11.2116 -11.2114 -11.1381 -11.1357
  0:    -10.9906 -10.9884 -10.9246 -10.9238  -9.4398  -9.4396  -9.3951  -9.3950
  0:     -7.8511  -7.8510  -7.7982  -7.7981  -6.5553  -6.5551  -6.5419  -6.5417
  0:     -6.3099  -6.3096  -6.2839  -6.2835  -4.9572  -4.9571  -4.8550  -4.8534
  0:     -4.7489  -4.7483  -4.7259  -4.7254  -3.5466  -3.5455  -3.4896  -3.4886
  0:     -3.0611  -3.0542  -2.7521  -2.7375  -2.7337  -2.7313  -2.6223  -2.6115
  0:     -2.1454  -2.1419  -2.1087  -2.1037  -1.5938  -1.5858  -1.5561  -1.5487
  0:     -1.4983  -1.4926  -1.2400  -1.2374  -0.8443  -0.8408  -0.4165  -0.3919
  0:     -0.2224  -0.2126  -0.0822  -0.0546   0.0396   0.0716   0.2193   0.2735
  0:      0.3215   0.4038   0.4510   0.4671   0.5113   0.5854   0.6407   0.6959
  0:      0.7134   0.7839   0.8408   0.8649   0.8755   0.9239   0.9866   0.9997
  0:      1.0247   1.0490   1.0905   1.1021   1.1500   1.1617   1.2426   1.3084
  0:      1.3232   1.3756   1.4493   1.4637   1.5590   1.5962   1.6969   1.7085
  0:      4.9878   5.0296   5.4566   5.5186   5.9606   5.9841   6.3460   6.4294
  0:      6.6289   6.6543   6.6962   6.7093   6.9134   6.9689   7.0094   7.0655
  0:      7.3743   7.4364   8.2024   8.2105   8.4625   8.4833   8.5878   8.6031
  0:      8.6604   8.6844   8.9408   8.9454   8.9966   9.0112   9.1500   9.1630
  0:      9.2917   9.2988   9.5174   9.5349   9.6237   9.6307   9.7494   9.7658
  0:      9.9161   9.9199  10.0078  10.0522  10.0805  10.0851  10.1517  10.1685
  0:     10.3442  10.3525  10.3675  10.3828  10.6310  10.6340  10.6692  10.6742
  0:     10.7929  10.8110  10.8368  10.8476  10.9982  11.0098  11.0778  11.0903
  0: 
  0:           k = 0.1936 0.0000 0.0000 ( 52597 PWs)   bands (ev):
  0: 
  0:    -17.1677 -17.1677 -17.1614 -17.1614 -15.0226 -15.0225 -15.0158 -15.0157
  0:    -14.9995 -14.9995 -14.9931 -14.9931 -13.2982 -13.2981 -13.2621 -13.2621
  0:    -12.5630 -12.5623 -12.5353 -12.5352 -12.5094 -12.5086 -12.4529 -12.4524
  0:    -12.4229 -12.4228 -12.4096 -12.4094 -11.9120 -11.9119 -11.8548 -11.8545
  0:    -11.5777 -11.5774 -11.3305 -11.3278 -11.2121 -11.2118 -11.1420 -11.1394
  0:    -10.9926 -10.9905 -10.9250 -10.9242  -9.4427  -9.4425  -9.3920  -9.3919
  0:     -7.8510  -7.8508  -7.7961  -7.7960  -6.5547  -6.5545  -6.5409  -6.5406
  0:     -6.3091  -6.3088  -6.2840  -6.2835  -4.9603  -4.9601  -4.8480  -4.8463
  0:     -4.7542  -4.7535  -4.7227  -4.7222  -3.5472  -3.5461  -3.4897  -3.4885
  0:     -3.0588  -3.0511  -2.7535  -2.7375  -2.7348  -2.7307  -2.6266  -2.6142
  0:     -2.1484  -2.1451  -2.1064  -2.1016  -1.5989  -1.5916  -1.5578  -1.5487
  0:     -1.4973  -1.4914  -1.2470  -1.2442  -0.8383  -0.8343  -0.4183  -0.3918
  0:     -0.2239  -0.2139  -0.0917  -0.0627   0.0448   0.0794   0.2175   0.2775
  0:      0.3169   0.4028   0.4476   0.4662   0.5110   0.5899   0.6410   0.7004
  0:      0.7137   0.7840   0.8393   0.8669   0.8787   0.9306   0.9853   0.9974
  0:      1.0278   1.0458   1.0934   1.1066   1.1392   1.1613   1.2349   1.2927
  0:      1.3278   1.3696   1.4404   1.4549   1.5716   1.6104   1.6955   1.7095
  0:      4.9873   5.0352   5.4663   5.5341   5.9563   5.9819   6.3493   6.4390
  0:      6.6338   6.6564   6.7073   6.7274   6.9188   6.9762   7.0104   7.0706
  0:      7.4142   7.4809   8.2191   8.2287   8.4487   8.4709   8.5714   8.5881
  0:      8.6472   8.6727   8.9575   8.9625   8.9967   9.0077   9.1494   9.1633
  0:      9.3351   9.3414   9.5028   9.5315   9.6085   9.6159   9.7307   9.7423
  0:      9.9156   9.9205  10.0089  10.0329  10.0589  10.0689  10.1259  10.1479
  0:     10.3283  10.3340  10.3830  10.4073  10.6261  10.6322  10.6655  10.6688
  0:     10.7698  10.7820  10.8236  10.8311  10.9961  11.0082  11.0686  11.0797
  0: 
  0:           k = 0.2212 0.0000 0.0000 ( 52612 PWs)   bands (ev):
  0: 
  0:    -17.1676 -17.1676 -17.1614 -17.1614 -15.0226 -15.0225 -15.0158 -15.0157
  0:    -14.9995 -14.9995 -14.9931 -14.9931 -13.2981 -13.2981 -13.2623 -13.2622
  0:    -12.5633 -12.5625 -12.5353 -12.5351 -12.5094 -12.5086 -12.4529 -12.4524
  0:    -12.4228 -12.4228 -12.4097 -12.4094 -11.9139 -11.9138 -11.8523 -11.8521
  0:    -11.5771 -11.5767 -11.3259 -11.3229 -11.2126 -11.2124 -11.1460 -11.1432
  0:    -10.9954 -10.9934 -10.9251 -10.9243  -9.4454  -9.4453  -9.3891  -9.3890
  0:     -7.8507  -7.8506  -7.7940  -7.7939  -6.5540  -6.5538  -6.5398  -6.5395
  0:     -6.3083  -6.3080  -6.2840  -6.2835  -4.9632  -4.9628  -4.8407  -4.8389
  0:     -4.7600  -4.7591  -4.7193  -4.7188  -3.5478  -3.5466  -3.4898  -3.4886
  0:     -3.0562  -3.0477  -2.7550  -2.7386  -2.7354  -2.7293  -2.6313  -2.6172
  0:     -2.1511  -2.1481  -2.1043  -2.0998  -1.6047  -1.5983  -1.5589  -1.5487
  0:     -1.4959  -1.4902  -1.2545  -1.2515  -0.8316  -0.8271  -0.4201  -0.3923
  0:     -0.2261  -0.2162  -0.0998  -0.0705   0.0513   0.0877   0.2163   0.2806
  0:      0.3129   0.3985   0.4458   0.4676   0.5100   0.5921   0.6433   0.7022
  0:      0.7152   0.7830   0.8366   0.8690   0.8813   0.9336   0.9818   0.9988
  0:      1.0293   1.0451   1.0958   1.1113   1.1288   1.1613   1.2263   1.2784
  0:      1.3321   1.3622   1.4336   1.4460   1.5851   1.6241   1.6944   1.7111
  0:      4.9869   5.0399   5.4775   5.5492   5.9526   5.9796   6.3548   6.4482
  0:      6.6370   6.6575   6.7232   6.7483   6.9254   6.9827   7.0128   7.0755
  0:      7.4594   7.5291   8.2369   8.2480   8.4339   8.4546   8.5641   8.5801
  0:      8.6365   8.6629   8.9674   8.9744   9.0002   9.0056   9.1424   9.1564
  0:      9.3721   9.3768   9.4936   9.5307   9.5895   9.6055   9.7104   9.7211
  0:      9.9122   9.9208   9.9950  10.0227  10.0352  10.0478  10.1073  10.1342
  0:     10.3106  10.3163  10.4004  10.4299  10.6222  10.6342  10.6634  10.6658
  0:     10.7479  10.7541  10.8071  10.8101  10.9969  11.0077  11.0525  11.0602
  0: 
  0:           k = 0.2489 0.0000 0.0000 ( 52600 PWs)   bands (ev):
  0: 
  0:    -17.1675 -17.1675 -17.1615 -17.1615 -15.0226 -15.0225 -15.0157 -15.0157
  0:    -14.9995 -14.9995 -14.9931 -14.9931 -13.2981 -13.2980 -13.2624 -13.2623
  0:    -12.5635 -12.5628 -12.5352 -12.5350 -12.5095 -12.5087 -12.4530 -12.4525
  0:    -12.4228 -12.4228 -12.4097 -12.4094 -11.9156 -11.9155 -11.8500 -11.8499
  0:    -11.5764 -11.5760 -11.3209 -11.3177 -11.2132 -11.2129 -11.1499 -11.1470
  0:    -10.9991 -10.9973 -10.9249 -10.9241  -9.4481  -9.4479  -9.3863  -9.3862
  0:     -7.8504  -7.8503  -7.7917  -7.7916  -6.5532  -6.5530  -6.5386  -6.5382
  0:     -6.3074  -6.3071  -6.2841  -6.2836  -4.9657  -4.9652  -4.8333  -4.8315
  0:     -4.7662  -4.7652  -4.7157  -4.7152  -3.5483  -3.5472  -3.4899  -3.4887
  0:     -3.0532  -3.0442  -2.7567  -2.7404  -2.7356  -2.7274  -2.6362  -2.6207
  0:     -2.1537  -2.1510  -2.1024  -2.0982  -1.6112  -1.6055  -1.5593  -1.5486
  0:     -1.4943  -1.4890  -1.2622  -1.2593  -0.8243  -0.8194  -0.4217  -0.3935
  0:     -0.2291  -0.2196  -0.1062  -0.0774   0.0593   0.0966   0.2158   0.2827
  0:      0.3095   0.3922   0.4447   0.4712   0.5082   0.5922   0.6475   0.7008
  0:      0.7177   0.7819   0.8320   0.8702   0.8832   0.9312   0.9812   1.0007
  0:      1.0280   1.0473   1.0963   1.1136   1.1237   1.1614   1.2167   1.2666
  0:      1.3348   1.3547   1.4282   1.4388   1.5986   1.6372   1.6936   1.7135
  0:      4.9865   5.0435   5.4897   5.5632   5.9495   5.9774   6.3624   6.4567
  0:      6.6390   6.6578   6.7433   6.7711   6.9332   6.9884   7.0163   7.0804
  0:      7.5090   7.5804   8.2550   8.2672   8.4211   8.4380   8.5626   8.5767
  0:      8.6288   8.6553   8.9699   8.9784   9.0049   9.0081   9.1300   9.1434
  0:      9.3967   9.3991   9.4914   9.5334   9.5759   9.5943   9.6887   9.7041
  0:      9.9062   9.9182   9.9783  10.0054  10.0229  10.0271  10.0940  10.1228
  0:     10.2943  10.3003  10.4138  10.4473  10.6150  10.6381  10.6627  10.6679
  0:     10.7308  10.7341  10.7884  10.7887  10.9988  11.0016  11.0351  11.0399
  0: 
  0:           k = 0.2765 0.0000 0.0000 ( 52602 PWs)   bands (ev):
  0: 
  0:    -17.1674 -17.1674 -17.1615 -17.1615 -15.0226 -15.0226 -15.0157 -15.0157
  0:    -14.9995 -14.9995 -14.9931 -14.9931 -13.2980 -13.2979 -13.2626 -13.2625
  0:    -12.5638 -12.5630 -12.5352 -12.5350 -12.5095 -12.5087 -12.4530 -12.4525
  0:    -12.4228 -12.4228 -12.4097 -12.4094 -11.9172 -11.9171 -11.8480 -11.8480
  0:    -11.5755 -11.5751 -11.3157 -11.3123 -11.2137 -11.2134 -11.1536 -11.1506
  0:    -11.0036 -11.0020 -10.9243 -10.9235  -9.4505  -9.4504  -9.3836  -9.3835
  0:     -7.8501  -7.8500  -7.7895  -7.7894  -6.5524  -6.5522  -6.5373  -6.5370
  0:     -6.3065  -6.3061  -6.2841  -6.2836  -4.9677  -4.9672  -4.8260  -4.8242
  0:     -4.7726  -4.7715  -4.7121  -4.7117  -3.5489  -3.5477  -3.4900  -3.4888
  0:     -3.0501  -3.0407  -2.7585  -2.7427  -2.7355  -2.7253  -2.6413  -2.6245
  0:     -2.1561  -2.1537  -2.1007  -2.0969  -1.6182  -1.6131  -1.5591  -1.5484
  0:     -1.4925  -1.4879  -1.2701  -1.2672  -0.8166  -0.8114  -0.4232  -0.3953
  0:     -0.2331  -0.2243  -0.1105  -0.0829   0.0687   0.1060   0.2161   0.2839
  0:      0.3063   0.3851   0.4434   0.4764   0.5052   0.5907   0.6529   0.6967
  0:      0.7208   0.7816   0.8254   0.8698   0.8835   0.9239   0.9847   1.0024
  0:      1.0231   1.0518   1.0931   1.1132   1.1270   1.1611   1.2070   1.2574
  0:      1.3341   1.3500   1.4228   1.4349   1.6117   1.6497   1.6930   1.7167
  0:      4.9863   5.0457   5.5025   5.5759   5.9472   5.9755   6.3716   6.4646
  0:      6.6404   6.6576   6.7665   6.7952   6.9417   6.9938   7.0207   7.0851
  0:      7.5622   7.6341   8.2719   8.2847   8.4133   8.4244   8.5643   8.5759
  0:      8.6245   8.6499   8.9679   8.9759   9.0037   9.0129   9.1148   9.1267
  0:      9.4033   9.4044   9.4962   9.5393   9.5696   9.5850   9.6690   9.6897
  0:      9.8974   9.9112   9.9681   9.9906  10.0054  10.0176  10.0833  10.1115
  0:     10.2800  10.2858  10.4225  10.4572  10.6005  10.6346  10.6647  10.6777
  0:     10.7207  10.7251  10.7724  10.7744  10.9779  10.9920  11.0207  11.0386
  0: 
  0:           k = 0.3042 0.0000 0.0000 ( 52593 PWs)   bands (ev):
  0: 
  0:    -17.1673 -17.1673 -17.1616 -17.1616 -15.0226 -15.0226 -15.0157 -15.0157
  0:    -14.9995 -14.9995 -14.9931 -14.9931 -13.2980 -13.2979 -13.2627 -13.2626
  0:    -12.5641 -12.5633 -12.5351 -12.5349 -12.5095 -12.5087 -12.4530 -12.4525
  0:    -12.4228 -12.4228 -12.4097 -12.4094 -11.9185 -11.9184 -11.8463 -11.8462
  0:    -11.5746 -11.5742 -11.3104 -11.3068 -11.2142 -11.2139 -11.1570 -11.1539
  0:    -11.0087 -11.0074 -10.9235 -10.9226  -9.4528  -9.4527  -9.3811  -9.3810
  0:     -7.8497  -7.8496  -7.7873  -7.7872  -6.5516  -6.5514  -6.5361  -6.5358
  0:     -6.3055  -6.3051  -6.2842  -6.2837  -4.9694  -4.9688  -4.8189  -4.8172
  0:     -4.7791  -4.7780  -4.7087  -4.7082  -3.5493  -3.5482  -3.4902  -3.4890
  0:     -3.0468  -3.0372  -2.7605  -2.7451  -2.7350  -2.7230  -2.6464  -2.6285
  0:     -2.1583  -2.1562  -2.0993  -2.0958  -1.6254  -1.6208  -1.5584  -1.5482
  0:     -1.4907  -1.4869  -1.2780  -1.2752  -0.8087  -0.8033  -0.4246  -0.3977
  0:     -0.2381  -0.2300  -0.1126  -0.0868   0.0796   0.1161   0.2172   0.2847
  0:      0.3030   0.3780   0.4415   0.4824   0.5008   0.5880   0.6582   0.6912
  0:      0.7242   0.7818   0.8169   0.8679   0.8815   0.9143   0.9892   1.0052
  0:      1.0156   1.0572   1.0885   1.1144   1.1316   1.1603   1.1991   1.2500
  0:      1.3296   1.3489   1.4182   1.4339   1.6237   1.6614   1.6927   1.7205
  0:      4.9864   5.0465   5.5156   5.5869   5.9458   5.9737   6.3822   6.4716
  0:      6.6414   6.6572   6.7916   6.8204   6.9509   6.9990   7.0255   7.0897
  0:      7.6183   7.6894   8.2861   8.2988   8.4114   8.4166   8.5676   8.5766
  0:      8.6238   8.6471   8.9637   8.9704   8.9934   9.0103   9.1019   9.1103
  0:      9.3907   9.3962   9.5047   9.5453   9.5669   9.5800   9.6546   9.6778
  0:      9.8856   9.9003   9.9684   9.9850   9.9887  10.0066  10.0741  10.1002
  0:     10.2682  10.2734  10.4269  10.4594  10.5810  10.6210  10.6676  10.6895
  0:     10.7165  10.7206  10.7681  10.7771  10.9473  10.9660  11.0240  11.0425
  0: 
  0:           k = 0.3318 0.0000 0.0000 ( 52599 PWs)   bands (ev):
  0: 
  0:    -17.1672 -17.1672 -17.1616 -17.1616 -15.0226 -15.0226 -15.0157 -15.0157
  0:    -14.9995 -14.9995 -14.9931 -14.9931 -13.2979 -13.2978 -13.2629 -13.2628
  0:    -12.5643 -12.5636 -12.5350 -12.5348 -12.5096 -12.5088 -12.4530 -12.4525
  0:    -12.4228 -12.4228 -12.4097 -12.4094 -11.9197 -11.9195 -11.8448 -11.8447
  0:    -11.5736 -11.5732 -11.3051 -11.3015 -11.2147 -11.2143 -11.1599 -11.1568
  0:    -11.0144 -11.0133 -10.9225 -10.9216  -9.4549  -9.4548  -9.3789  -9.3788
  0:     -7.8493  -7.8492  -7.7852  -7.7851  -6.5508  -6.5506  -6.5349  -6.5346
  0:     -6.3045  -6.3042  -6.2844  -6.2838  -4.9707  -4.9700  -4.8122  -4.8104
  0:     -4.7857  -4.7844  -4.7053  -4.7049  -3.5497  -3.5486  -3.4904  -3.4893
  0:     -3.0434  -3.0338  -2.7624  -2.7477  -2.7342  -2.7208  -2.6514  -2.6327
  0:     -2.1603  -2.1585  -2.0980  -2.0950  -1.6324  -1.6284  -1.5572  -1.5478
  0:     -1.4890  -1.4860  -1.2856  -1.2829  -0.8008  -0.7953  -0.4258  -0.4005
  0:     -0.2439  -0.2364  -0.1129  -0.0893   0.0918   0.1268   0.2192   0.2852
  0:      0.2994   0.3711   0.4385   0.4884   0.4955   0.5844   0.6615   0.6866
  0:      0.7280   0.7818   0.8073   0.8643   0.8772   0.9048   0.9895   1.0081
  0:      1.0117   1.0620   1.0853   1.1155   1.1342   1.1598   1.1947   1.2438
  0:      1.3244   1.3485   1.4155   1.4343   1.6345   1.6723   1.6927   1.7248
  0:      4.9869   5.0460   5.5286   5.5959   5.9452   5.9722   6.3937   6.4776
  0:      6.6421   6.6568   6.8173   6.8460   6.9605   7.0043   7.0305   7.0940
  0:      7.6762   7.7452   8.2961   8.3092   8.4110   8.4202   8.5718   8.5784
  0:      8.6261   8.6471   8.9568   8.9631   8.9727   8.9949   9.0942   9.1002
  0:      9.3669   9.3767   9.5132   9.5487   9.5615   9.5783   9.6480   9.6697
  0:      9.8725   9.8880   9.9708   9.9758   9.9872   9.9970  10.0669  10.0897
  0:     10.2597  10.2639  10.4267  10.4556  10.5604  10.6020  10.6662  10.6901
  0:     10.7181  10.7235  10.7824  10.7951  10.9155  10.9376  11.0294  11.0444
  0: 
  0:           k = 0.3595 0.0000 0.0000 ( 52611 PWs)   bands (ev):
  0: 
  0:    -17.1671 -17.1671 -17.1617 -17.1617 -15.0226 -15.0226 -15.0157 -15.0157
  0:    -14.9995 -14.9995 -14.9932 -14.9931 -13.2979 -13.2978 -13.2630 -13.2629
  0:    -12.5645 -12.5639 -12.5350 -12.5348 -12.5096 -12.5088 -12.4530 -12.4525
  0:    -12.4228 -12.4227 -12.4097 -12.4094 -11.9206 -11.9204 -11.8436 -11.8435
  0:    -11.5726 -11.5722 -11.3000 -11.2965 -11.2151 -11.2147 -11.1623 -11.1592
  0:    -11.0205 -11.0196 -10.9214 -10.9205  -9.4568  -9.4567  -9.3768  -9.3768
  0:     -7.8489  -7.8488  -7.7832  -7.7831  -6.5500  -6.5499  -6.5337  -6.5334
  0:     -6.3036  -6.3032  -6.2845  -6.2840  -4.9715  -4.9708  -4.8061  -4.8042
  0:     -4.7919  -4.7905  -4.7022  -4.7018  -3.5500  -3.5490  -3.4906  -3.4896
  0:     -3.0400  -3.0307  -2.7642  -2.7505  -2.7330  -2.7187  -2.6562  -2.6371
  0:     -2.1620  -2.1605  -2.0970  -2.0944  -1.6392  -1.6356  -1.5558  -1.5474
  0:     -1.4874  -1.4852  -1.2927  -1.2903  -0.7930  -0.7877  -0.4269  -0.4036
  0:     -0.2500  -0.2432  -0.1116  -0.0904   0.1054   0.1382   0.2223   0.2858
  0:      0.2953   0.3647   0.4336   0.4851   0.4978   0.5798   0.6604   0.6861
  0:      0.7320   0.7800   0.7987   0.8580   0.8721   0.8962   0.9850   1.0032
  0:      1.0210   1.0651   1.0840   1.1143   1.1349   1.1608   1.1936   1.2384
  0:      1.3203   1.3474   1.4153   1.4354   1.6438   1.6818   1.6939   1.7292
  0:      4.9878   5.0442   5.5411   5.6030   5.9453   5.9708   6.4057   6.4824
  0:      6.6428   6.6564   6.8424   6.8717   6.9703   7.0096   7.0355   7.0978
  0:      7.7351   7.8008   8.3027   8.3167   8.4131   8.4304   8.5753   8.5814
  0:      8.6316   8.6507   8.9343   8.9532   8.9577   8.9673   9.0914   9.0976
  0:      9.3369   9.3499   9.5195   9.5494   9.5535   9.5760   9.6484   9.6666
  0:      9.8600   9.8755   9.9518   9.9639   9.9993  10.0058  10.0629  10.0807
  0:     10.2550  10.2585  10.4218  10.4473  10.5400  10.5809  10.6621  10.6767
  0:     10.7318  10.7361  10.8071  10.8192  10.8859  10.9113  11.0321  11.0415
  0: 
  0:           k = 0.3871 0.0000 0.0000 ( 52600 PWs)   bands (ev):
  0: 
  0:    -17.1671 -17.1671 -17.1617 -17.1617 -15.0226 -15.0226 -15.0157 -15.0157
  0:    -14.9995 -14.9995 -14.9932 -14.9931 -13.2978 -13.2977 -13.2631 -13.2631
  0:    -12.5647 -12.5641 -12.5349 -12.5347 -12.5096 -12.5089 -12.4530 -12.4526
  0:    -12.4228 -12.4227 -12.4097 -12.4095 -11.9213 -11.9211 -11.8427 -11.8425
  0:    -11.5716 -11.5712 -11.2953 -11.2920 -11.2154 -11.2150 -11.1640 -11.1611
  0:    -11.0266 -11.0258 -10.9202 -10.9194  -9.4584  -9.4583  -9.3750  -9.3750
  0:     -7.8485  -7.8484  -7.7814  -7.7813  -6.5493  -6.5492  -6.5326  -6.5324
  0:     -6.3027  -6.3024  -6.2846  -6.2841  -4.9720  -4.9713  -4.8018  -4.7998
  0:     -4.7965  -4.7949  -4.6995  -4.6991  -3.5503  -3.5494  -3.4909  -3.4899
  0:     -3.0366  -3.0280  -2.7657  -2.7532  -2.7316  -2.7169  -2.6604  -2.6415
  0:     -2.1635  -2.1622  -2.0962  -2.0940  -1.6454  -1.6423  -1.5542  -1.5469
  0:     -1.4861  -1.4845  -1.2993  -1.2972  -0.7857  -0.7807  -0.4277  -0.4070
  0:     -0.2561  -0.2500  -0.1092  -0.0906   0.1199   0.1500   0.2265   0.2858
  0:      0.2917   0.3590   0.4263   0.4749   0.5049   0.5744   0.6566   0.6888
  0:      0.7361   0.7737   0.7948   0.8484   0.8683   0.8880   0.9792   1.0002
  0:      1.0311   1.0663   1.0834   1.1103   1.1361   1.1625   1.1951   1.2336
  0:      1.3179   1.3455   1.4170   1.4367   1.6518   1.6869   1.6986   1.7334
  0:      4.9892   5.0412   5.5529   5.6082   5.9461   5.9695   6.4177   6.4859
  0:      6.6435   6.6562   6.8659   6.8963   6.9802   7.0148   7.0405   7.1009
  0:      7.7938   7.8547   8.3079   8.3227   8.4179   8.4417   8.5760   8.5850
  0:      8.6410   8.6588   8.8969   8.9228   8.9498   8.9528   9.0923   9.0993
  0:      9.3031   9.3185   9.5214   9.5438   9.5514   9.5719   9.6535   9.6681
  0:      9.8476   9.8622   9.9327   9.9440  10.0134  10.0227  10.0648  10.0746
  0:     10.2548  10.2589  10.4127  10.4355  10.5203  10.5591  10.6597  10.6620
  0:     10.7496  10.7537  10.8333  10.8409  10.8641  10.8885  11.0300  11.0339
  0: 
  0:           k = 0.4148 0.0000 0.0000 ( 52585 PWs)   bands (ev):
  0: 
  0:    -17.1670 -17.1670 -17.1617 -17.1617 -15.0226 -15.0226 -15.0157 -15.0157
  0:    -14.9995 -14.9995 -14.9932 -14.9931 -13.2978 -13.2977 -13.2632 -13.2632
  0:    -12.5649 -12.5644 -12.5348 -12.5347 -12.5096 -12.5090 -12.4530 -12.4526
  0:    -12.4228 -12.4227 -12.4097 -12.4095 -11.9219 -11.9217 -11.8419 -11.8418
  0:    -11.5707 -11.5703 -11.2910 -11.2880 -11.2157 -11.2153 -11.1651 -11.1624
  0:    -11.0326 -11.0319 -10.9192 -10.9185  -9.4598  -9.4597  -9.3735  -9.3734
  0:     -7.8481  -7.8480  -7.7798  -7.7797  -6.5487  -6.5485  -6.5317  -6.5315
  0:     -6.3019  -6.3015  -6.2848  -6.2843  -4.9722  -4.9716  -4.8041  -4.8035
  0:     -4.7933  -4.7927  -4.6970  -4.6967  -3.5504  -3.5497  -3.4911  -3.4903
  0:     -3.0334  -3.0256  -2.7670  -2.7560  -2.7298  -2.7155  -2.6640  -2.6460
  0:     -2.1648  -2.1637  -2.0955  -2.0937  -1.6509  -1.6483  -1.5525  -1.5465
  0:     -1.4849  -1.4838  -1.3052  -1.3033  -0.7790  -0.7745  -0.4282  -0.4104
  0:     -0.2617  -0.2565  -0.1060  -0.0902   0.1350   0.1622   0.2317   0.2823
  0:      0.2920   0.3541   0.4163   0.4615   0.5124   0.5687   0.6534   0.6914
  0:      0.7398   0.7649   0.7950   0.8376   0.8654   0.8798   0.9748   0.9977
  0:      1.0410   1.0662   1.0819   1.1055   1.1384   1.1635   1.1982   1.2294
  0:      1.3170   1.3432   1.4201   1.4380   1.6585   1.6879   1.7068   1.7370
  0:      4.9913   5.0373   5.5640   5.6115   5.9475   5.9682   6.4294   6.4879
  0:      6.6443   6.6560   6.8873   6.9185   6.9905   7.0197   7.0457   7.1028
  0:      7.8510   7.9056   8.3135   8.3286   8.4236   8.4513   8.5730   8.5862
  0:      8.6559   8.6723   8.8558   8.8779   8.9447   8.9476   9.0953   9.1029
  0:      9.2674   9.2842   9.5193   9.5379   9.5519   9.5672   9.6615   9.6731
  0:      9.8337   9.8465   9.9167   9.9270  10.0182  10.0393  10.0682  10.0797
  0:     10.2599  10.2659  10.4003  10.4206  10.5016  10.5371  10.6510  10.6612
  0:     10.7675  10.7701  10.8341  10.8561  10.8706  10.8750  11.0225  11.0259
  0: 
  0:           k = 0.4424 0.0000 0.0000 ( 52583 PWs)   bands (ev):
  0: 
  0:    -17.1669 -17.1669 -17.1618 -17.1618 -15.0226 -15.0226 -15.0157 -15.0157
  0:    -14.9995 -14.9995 -14.9932 -14.9931 -13.2977 -13.2976 -13.2633 -13.2633
  0:    -12.5650 -12.5646 -12.5347 -12.5346 -12.5096 -12.5091 -12.4529 -12.4526
  0:    -12.4227 -12.4227 -12.4097 -12.4095 -11.9223 -11.9221 -11.8414 -11.8412
  0:    -11.5698 -11.5695 -11.2874 -11.2848 -11.2159 -11.2155 -11.1656 -11.1632
  0:    -11.0381 -11.0375 -10.9182 -10.9176  -9.4610  -9.4609  -9.3722  -9.3722
  0:     -7.8477  -7.8477  -7.7784  -7.7784  -6.5481  -6.5480  -6.5308  -6.5307
  0:     -6.3011  -6.3008  -6.2849  -6.2845  -4.9722  -4.9717  -4.8085  -4.8080
  0:     -4.7893  -4.7886  -4.6950  -4.6947  -3.5505  -3.5499  -3.4913  -3.4906
  0:     -3.0304  -3.0238  -2.7679  -2.7586  -2.7279  -2.7146  -2.6665  -2.6503
  0:     -2.1658  -2.1650  -2.0950  -2.0936  -1.6555  -1.6534  -1.5509  -1.5461
  0:     -1.4839  -1.4833  -1.3101  -1.3086  -0.7731  -0.7692  -0.4283  -0.4137
  0:     -0.2666  -0.2623  -0.1024  -0.0896   0.1500   0.1742   0.2379   0.2769
  0:      0.2952   0.3503   0.4042   0.4448   0.5200   0.5635   0.6523   0.6919
  0:      0.7426   0.7576   0.7966   0.8276   0.8627   0.8717   0.9728   0.9951
  0:      1.0497   1.0657   1.0789   1.1016   1.1413   1.1631   1.2022   1.2259
  0:      1.3176   1.3405   1.4237   1.4390   1.6643   1.6874   1.7152   1.7398
  0:      4.9941   5.0326   5.5741   5.6130   5.9494   5.9667   6.4405   6.4884
  0:      6.6454   6.6556   6.9061   6.9363   7.0013   7.0242   7.0513   7.1033
  0:      7.9049   7.9515   8.3204   8.3351   8.4293   8.4583   8.5672   8.5837
  0:      8.6761   8.6898   8.8149   8.8305   8.9415   8.9442   9.0996   9.1075
  0:      9.2318   9.2489   9.5165   9.5333   9.5520   9.5624   9.6709   9.6801
  0:      9.8179   9.8285   9.9061   9.9151  10.0178  10.0436  10.0766  10.0935
  0:     10.2713  10.2796  10.3863  10.4038  10.4841  10.5151  10.6461  10.6670
  0:     10.7735  10.7813  10.8304  10.8569  10.8754  10.8915  11.0159  11.0202
  0: 
  0:           k = 0.4701 0.0000 0.0000 ( 52574 PWs)   bands (ev):
  0: 
  0:    -17.1669 -17.1669 -17.1618 -17.1618 -15.0226 -15.0226 -15.0157 -15.0157
  0:    -14.9995 -14.9995 -14.9932 -14.9931 -13.2977 -13.2976 -13.2634 -13.2634
  0:    -12.5651 -12.5648 -12.5347 -12.5346 -12.5096 -12.5092 -12.4529 -12.4527
  0:    -12.4227 -12.4227 -12.4096 -12.4095 -11.9226 -11.9224 -11.8409 -11.8408
  0:    -11.5691 -11.5688 -11.2844 -11.2823 -11.2160 -11.2157 -11.1655 -11.1636
  0:    -11.0428 -11.0423 -10.9174 -10.9169  -9.4619  -9.4618  -9.3712  -9.3712
  0:     -7.8475  -7.8474  -7.7774  -7.7773  -6.5476  -6.5476  -6.5302  -6.5300
  0:     -6.3005  -6.3003  -6.2850  -6.2847  -4.9721  -4.9716  -4.8123  -4.8119
  0:     -4.7858  -4.7852  -4.6933  -4.6931  -3.5506  -3.5501  -3.4914  -3.4909
  0:     -3.0277  -3.0225  -2.7683  -2.7611  -2.7257  -2.7146  -2.6679  -2.6545
  0:     -2.1666  -2.1659  -2.0946  -2.0936  -1.6592  -1.6576  -1.5495  -1.5459
  0:     -1.4832  -1.4828  -1.3141  -1.3129  -0.7682  -0.7651  -0.4280  -0.4169
  0:     -0.2705  -0.2672  -0.0988  -0.0891   0.1643   0.1848   0.2445   0.2716
  0:      0.3006   0.3479   0.3907   0.4256   0.5273   0.5589   0.6536   0.6893
  0:      0.7435   0.7539   0.7986   0.8200   0.8599   0.8643   0.9728   0.9921
  0:      1.0563   1.0654   1.0760   1.0985   1.1445   1.1618   1.2062   1.2230
  0:      1.3192   1.3376   1.4276   1.4394   1.6693   1.6864   1.7228   1.7414
  0:      4.9975   5.0274   5.5832   5.6129   5.9515   5.9650   6.4507   6.4873
  0:      6.6468   6.6550   6.9222   6.9484   7.0123   7.0280   7.0576   7.1017
  0:      7.9531   7.9901   8.3286   8.3418   8.4350   8.4623   8.5607   8.5783
  0:      8.6987   8.7067   8.7788   8.7852   8.9399   8.9423   9.1045   9.1118
  0:      9.1989   9.2148   9.5150   9.5295   9.5513   9.5581   9.6802   9.6873
  0:      9.8026   9.8108   9.9003   9.9077  10.0163  10.0391  10.0894  10.1052
  0:     10.2883  10.2978  10.3723  10.3868  10.4681  10.4940  10.6483  10.6768
  0:     10.7595  10.7833  10.8425  10.8581  10.8842  10.9001  11.0156  11.0178
  0: 
  0:           k = 0.4977 0.0000 0.0000 ( 52591 PWs)   bands (ev):
  0: 
  0:    -17.1668 -17.1668 -17.1618 -17.1618 -15.0226 -15.0226 -15.0157 -15.0157
  0:    -14.9995 -14.9995 -14.9932 -14.9931 -13.2977 -13.2976 -13.2635 -13.2634
  0:    -12.5652 -12.5649 -12.5346 -12.5345 -12.5095 -12.5093 -12.4529 -12.4527
  0:    -12.4227 -12.4227 -12.4096 -12.4095 -11.9228 -11.9227 -11.8407 -11.8406
  0:    -11.5685 -11.5683 -11.2821 -11.2807 -11.2161 -11.2159 -11.1651 -11.1638
  0:    -11.0464 -11.0461 -10.9168 -10.9165  -9.4625  -9.4625  -9.3705  -9.3704
  0:     -7.8472  -7.8472  -7.7766  -7.7766  -6.5473  -6.5472  -6.5297  -6.5296
  0:     -6.3000  -6.2998  -6.2851  -6.2849  -4.9719  -4.9716  -4.8152  -4.8148
  0:     -4.7832  -4.7828  -4.6921  -4.6920  -3.5506  -3.5503  -3.4915  -3.4912
  0:     -3.0255  -3.0219  -2.7683  -2.7633  -2.7234  -2.7153  -2.6679  -2.6584
  0:     -2.1671  -2.1667  -2.0943  -2.0936  -1.6618  -1.6607  -1.5482  -1.5459
  0:     -1.4826  -1.4825  -1.3169  -1.3161  -0.7645  -0.7623  -0.4273  -0.4199
  0:     -0.2732  -0.2709  -0.0956  -0.0890   0.1769   0.1926   0.2505   0.2671
  0:      0.3087   0.3469   0.3776   0.4056   0.5342   0.5549   0.6570   0.6838
  0:      0.7438   0.7522   0.8007   0.8150   0.8572   0.8585   0.9746   0.9888
  0:      1.0593   1.0646   1.0767   1.0952   1.1477   1.1596   1.2099   1.2205
  0:      1.3217   1.3345   1.4312   1.4392   1.6736   1.6849   1.7293   1.7418
  0:      5.0015   5.0220   5.5912   5.6112   5.9539   5.9631   6.4600   6.4847
  0:      6.6483   6.6542   6.9353   6.9545   7.0218   7.0308   7.0653   7.0979
  0:      7.9929   8.0187   8.3373   8.3478   8.4411   8.4629   8.5565   8.5720
  0:      8.7122   8.7180   8.7487   8.7579   8.9396   8.9414   9.1091   9.1150
  0:      9.1723   9.1851   9.5154   9.5261   9.5501   9.5545   9.6875   9.6926
  0:      9.7910   9.7968   9.8975   9.9028  10.0159  10.0327  10.1003  10.1122
  0:     10.3082  10.3167  10.3601  10.3714  10.4551  10.4750  10.6574  10.6908
  0:     10.7383  10.7714  10.8585  10.8710  10.8883  10.9034  10.9986  11.0136
  0: 
  0:           k = 0.5254 0.0000 0.0000 ( 52621 PWs)   bands (ev):
  0: 
  0:    -17.1668 -17.1668 -17.1619 -17.1619 -15.0226 -15.0226 -15.0157 -15.0157
  0:    -14.9995 -14.9995 -14.9932 -14.9931 -13.2976 -13.2976 -13.2635 -13.2635
  0:    -12.5652 -12.5651 -12.5346 -12.5345 -12.5095 -12.5093 -12.4528 -12.4528
  0:    -12.4227 -12.4227 -12.4096 -12.4096 -11.9229 -11.9228 -11.8405 -11.8405
  0:    -11.5681 -11.5680 -11.2806 -11.2798 -11.2161 -11.2160 -11.1646 -11.1639
  0:    -11.0487 -11.0485 -10.9164 -10.9162  -9.4629  -9.4629  -9.3700  -9.3700
  0:     -7.8471  -7.8471  -7.7761  -7.7761  -6.5471  -6.5471  -6.5294  -6.5293
  0:     -6.2997  -6.2996  -6.2851  -6.2850  -4.9717  -4.9715  -4.8169  -4.8167
  0:     -4.7815  -4.7813  -4.6914  -4.6913  -3.5506  -3.5504  -3.4915  -3.4914
  0:     -3.0237  -3.0219  -2.7677  -2.7652  -2.7210  -2.7168  -2.6668  -2.6618
  0:     -2.1674  -2.1672  -2.0941  -2.0937  -1.6632  -1.6627  -1.5472  -1.5461
  0:     -1.4823  -1.4823  -1.3185  -1.3182  -0.7619  -0.7608  -0.4262  -0.4224
  0:     -0.2746  -0.2735  -0.0929  -0.0896   0.1871   0.1959   0.2555   0.2633
  0:      0.3202   0.3440   0.3698   0.3873   0.5405   0.5507   0.6624   0.6766
  0:      0.7452   0.7502   0.8037   0.8112   0.8548   0.8552   0.9775   0.9850
  0:      1.0602   1.0627   1.0811   1.0911   1.1509   1.1570   1.2131   1.2182
  0:      1.3246   1.3312   1.4342   1.4383   1.6772   1.6828   1.7346   1.7408
  0:      5.0061   5.0165   5.5981   5.6082   5.9563   5.9610   6.4681   6.4805
  0:      6.6500   6.6530   6.9454   6.9555   7.0284   7.0322   7.0744   7.0918
  0:      8.0212   8.0344   8.3451   8.3511   8.4476   8.4599   8.5566   8.5659
  0:      8.7024   8.7098   8.7464   8.7565   8.9400   8.9409   9.1126   9.1160
  0:      9.1563   9.1634   9.5172   9.5229   9.5495   9.5518   9.6923   9.6950
  0:      9.7850   9.7880   9.8967   9.8995  10.0174  10.0263  10.1083  10.1147
  0:     10.3275  10.3318  10.3506  10.3582  10.4479  10.4594  10.6725  10.7087
  0:     10.7152  10.7518  10.8704  10.8784  10.9003  10.9114  10.9664  10.9767
  0: 
  0:           k = 0.5530 0.0000 0.0000 ( 52604 PWs)   bands (ev):
  0: 
  0:    -17.1668 -17.1668 -17.1619 -17.1619 -15.0226 -15.0226 -15.0157 -15.0157
  0:    -14.9995 -14.9995 -14.9931 -14.9931 -13.2976 -13.2976 -13.2635 -13.2635
  0:    -12.5651 -12.5651 -12.5346 -12.5346 -12.5094 -12.5094 -12.4528 -12.4528
  0:    -12.4227 -12.4227 -12.4096 -12.4096 -11.9229 -11.9229 -11.8404 -11.8404
  0:    -11.5680 -11.5680 -11.2798 -11.2798 -11.2161 -11.2161 -11.1642 -11.1642
  0:    -11.0494 -11.0494 -10.9162 -10.9162  -9.4630  -9.4630  -9.3699  -9.3699
  0:     -7.8470  -7.8470  -7.7759  -7.7759  -6.5470  -6.5470  -6.5292  -6.5292
  0:     -6.2995  -6.2995  -6.2851  -6.2851  -4.9716  -4.9716  -4.8174  -4.8174
  0:     -4.7809  -4.7809  -4.6911  -4.6911  -3.5505  -3.5505  -3.4915  -3.4915
  0:     -3.0225  -3.0225  -2.7667  -2.7667  -2.7188  -2.7188  -2.6647  -2.6647
  0:     -2.1674  -2.1674  -2.0939  -2.0939  -1.6636  -1.6636  -1.5465  -1.5465
  0:     -1.4822  -1.4822  -1.3190  -1.3190  -0.7607  -0.7607  -0.4245  -0.4245
  0:     -0.2747  -0.2747  -0.0908  -0.0908   0.1938   0.1938   0.2596   0.2596
  0:      0.3335   0.3335   0.3740   0.3740   0.5460   0.5460   0.6691   0.6691
  0:      0.7475   0.7475   0.8074   0.8074   0.8540   0.8540   0.9812   0.9812
  0:      1.0611   1.0611   1.0864   1.0864   1.1540   1.1540   1.2158   1.2158
  0:      1.3279   1.3279   1.4367   1.4367   1.6803   1.6803   1.7384   1.7384
  0:      5.0111   5.0111   5.6038   5.6038   5.9587   5.9587   6.4750   6.4750
  0:      6.6516   6.6516   6.9522   6.9522   7.0317   7.0317   7.0836   7.0836
  0:      8.0354   8.0354   8.3502   8.3502   8.4543   8.4543   8.5605   8.5605
  0:      8.6986   8.6986   8.7551   8.7551   8.9404   8.9404   9.1149   9.1149
  0:      9.1533   9.1533   9.5198   9.5198   9.5500   9.5500   9.6947   9.6947
  0:      9.7842   9.7842   9.8974   9.8974  10.0210  10.0210  10.1132  10.1132
  0:     10.3397  10.3397  10.3469  10.3469  10.4494  10.4494  10.6923  10.6923
  0:     10.7299  10.7299  10.8761  10.8761  10.9177  10.9177  10.9523  10.9523
  0: 
  0:           k = 0.5530 0.0235 0.0000 ( 52616 PWs)   bands (ev):
  0: 
  0:    -17.1668 -17.1668 -17.1619 -17.1619 -15.0226 -15.0226 -15.0157 -15.0157
  0:    -14.9995 -14.9995 -14.9932 -14.9931 -13.2976 -13.2976 -13.2636 -13.2635
  0:    -12.5653 -12.5648 -12.5345 -12.5344 -12.5097 -12.5092 -12.4533 -12.4526
  0:    -12.4227 -12.4226 -12.4096 -12.4095 -11.9229 -11.9228 -11.8407 -11.8407
  0:    -11.5676 -11.5676 -11.2825 -11.2804 -11.2170 -11.2127 -11.1647 -11.1624
  0:    -11.0498 -11.0495 -10.9166 -10.9163  -9.4628  -9.4628  -9.3700  -9.3699
  0:     -7.8470  -7.8470  -7.7761  -7.7761  -6.5470  -6.5469  -6.5292  -6.5292
  0:     -6.2995  -6.2995  -6.2851  -6.2851  -4.9712  -4.9711  -4.8176  -4.8175
  0:     -4.7809  -4.7809  -4.6914  -4.6914  -3.5509  -3.5507  -3.4922  -3.4918
  0:     -3.0220  -3.0220  -2.7668  -2.7667  -2.7189  -2.7187  -2.6653  -2.6651
  0:     -2.1675  -2.1673  -2.0942  -2.0941  -1.6639  -1.6632  -1.5470  -1.5459
  0:     -1.4813  -1.4802  -1.3193  -1.3193  -0.7600  -0.7598  -0.4241  -0.4225
  0:     -0.2759  -0.2739  -0.0936  -0.0898   0.1905   0.1940   0.2532   0.2678
  0:      0.3258   0.3383   0.3703   0.3808   0.5425   0.5473   0.6618   0.6763
  0:      0.7459   0.7488   0.8016   0.8125   0.8503   0.8600   0.9789   0.9834
  0:      1.0592   1.0593   1.0865   1.0884   1.1509   1.1569   1.2146   1.2176
  0:      1.3275   1.3287   1.4343   1.4391   1.6771   1.6835   1.7381   1.7408
  0:      5.0072   5.0164   5.6015   5.6040   5.9485   5.9705   6.4719   6.4775
  0:      6.6431   6.6592   6.9507   6.9517   7.0279   7.0319   7.0810   7.0850
  0:      8.0345   8.0398   8.3474   8.3522   8.4531   8.4557   8.5598   8.5598
  0:      8.6939   8.7003   8.7534   8.7581   8.9406   8.9411   9.1158   9.1168
  0:      9.1515   9.1537   9.5203   9.5209   9.5488   9.5495   9.6880   9.6882
  0:      9.7921   9.7948   9.8952   9.8959  10.0219  10.0222  10.1136  10.1140
  0:     10.3360  10.3396  10.3405  10.3521  10.4447  10.4581  10.6903  10.6931
  0:     10.7270  10.7321  10.8655  10.8723  10.9104  10.9229  10.9509  10.9586
  0: 
  0:           k = 0.5530 0.0471 0.0000 ( 52624 PWs)   bands (ev):
  0: 
  0:    -17.1668 -17.1668 -17.1619 -17.1619 -15.0226 -15.0225 -15.0158 -15.0157
  0:    -14.9995 -14.9995 -14.9933 -14.9931 -13.2974 -13.2974 -13.2637 -13.2637
  0:    -12.5652 -12.5644 -12.5344 -12.5340 -12.5102 -12.5092 -12.4542 -12.4528
  0:    -12.4227 -12.4224 -12.4096 -12.4095 -11.9227 -11.9226 -11.8416 -11.8415
  0:    -11.5664 -11.5664 -11.2877 -11.2842 -11.2155 -11.2077 -11.1637 -11.1592
  0:    -11.0504 -11.0499 -10.9176 -10.9170  -9.4622  -9.4622  -9.3702  -9.3702
  0:     -7.8467  -7.8467  -7.7765  -7.7765  -6.5468  -6.5468  -6.5292  -6.5292
  0:     -6.2995  -6.2994  -6.2852  -6.2852  -4.9700  -4.9699  -4.8181  -4.8179
  0:     -4.7810  -4.7810  -4.6921  -4.6920  -3.5518  -3.5514  -3.4940  -3.4933
  0:     -3.0206  -3.0205  -2.7672  -2.7669  -2.7191  -2.7187  -2.6669  -2.6664
  0:     -2.1676  -2.1672  -2.0950  -2.0949  -1.6642  -1.6627  -1.5472  -1.5451
  0:     -1.4775  -1.4753  -1.3203  -1.3202  -0.7578  -0.7573  -0.4211  -0.4182
  0:     -0.2774  -0.2735  -0.0980  -0.0903   0.1847   0.1909   0.2489   0.2767
  0:      0.3162   0.3406   0.3696   0.3901   0.5368   0.5463   0.6546   0.6831
  0:      0.7440   0.7495   0.7958   0.8164   0.8494   0.8674   0.9768   0.9851
  0:      1.0536   1.0558   1.0891   1.0906   1.1479   1.1593   1.2142   1.2199
  0:      1.3274   1.3297   1.4322   1.4415   1.6742   1.6864   1.7399   1.7447
  0:      5.0048   5.0228   5.5972   5.6022   5.9401   5.9834   6.4683   6.4793
  0:      6.6337   6.6659   6.9469   6.9492   7.0210   7.0286   7.0772   7.0850
  0:      8.0372   8.0473   8.3437   8.3532   8.4520   8.4575   8.5578   8.5579
  0:      8.6867   8.6984   8.7537   8.7619   8.9415   8.9426   9.1195   9.1212
  0:      9.1487   9.1528   9.5217   9.5226   9.5465   9.5479   9.6744   9.6744
  0:      9.8130   9.8171   9.8892   9.8909  10.0251  10.0255  10.1154  10.1158
  0:     10.3244  10.3382  10.3395  10.3517  10.4455  10.4679  10.6870  10.6917
  0:     10.7235  10.7327  10.8497  10.8582  10.9013  10.9255  10.9551  10.9658
  0: 
  0:           k = 0.5530 0.0706 0.0000 ( 52610 PWs)   bands (ev):
  0: 
  0:    -17.1667 -17.1667 -17.1619 -17.1619 -15.0225 -15.0224 -15.0158 -15.0158
  0:    -14.9995 -14.9994 -14.9934 -14.9931 -13.2972 -13.2971 -13.2640 -13.2640
  0:    -12.5650 -12.5637 -12.5340 -12.5336 -12.5108 -12.5094 -12.4554 -12.4533
  0:    -12.4225 -12.4221 -12.4097 -12.4094 -11.9224 -11.9223 -11.8429 -11.8428
  0:    -11.5644 -11.5644 -11.2947 -11.2906 -11.2121 -11.2020 -11.1611 -11.1549
  0:    -11.0515 -11.0506 -10.9192 -10.9182  -9.4612  -9.4611  -9.3706  -9.3706
  0:     -7.8464  -7.8464  -7.7772  -7.7772  -6.5465  -6.5465  -6.5292  -6.5292
  0:     -6.2993  -6.2993  -6.2852  -6.2852  -4.9680  -4.9679  -4.8188  -4.8187
  0:     -4.7812  -4.7811  -4.6933  -4.6932  -3.5532  -3.5526  -3.4968  -3.4957
  0:     -3.0183  -3.0181  -2.7676  -2.7673  -2.7194  -2.7188  -2.6693  -2.6686
  0:     -2.1677  -2.1671  -2.0963  -2.0962  -1.6642  -1.6621  -1.5472  -1.5441
  0:     -1.4711  -1.4680  -1.3220  -1.3218  -0.7540  -0.7533  -0.4158  -0.4116
  0:     -0.2792  -0.2734  -0.1040  -0.0924   0.1770   0.1853   0.2456   0.2836
  0:      0.3065   0.3413   0.3719   0.4009   0.5293   0.5431   0.6478   0.6893
  0:      0.7420   0.7496   0.7907   0.8192   0.8511   0.8756   0.9752   0.9861
  0:      1.0453   1.0526   1.0915   1.0924   1.1454   1.1613   1.2150   1.2225
  0:      1.3274   1.3308   1.4304   1.4439   1.6721   1.6889   1.7440   1.7500
  0:      5.0041   5.0303   5.5908   5.5986   5.9335   5.9974   6.4641   6.4801
  0:      6.6239   6.6716   6.9402   6.9450   7.0118   7.0220   7.0726   7.0836
  0:      8.0430   8.0572   8.3391   8.3530   8.4511   8.4599   8.5549   8.5551
  0:      8.6777   8.6932   8.7564   8.7665   8.9430   8.9448   9.1250   9.1256
  0:      9.1471   9.1514   9.5214   9.5217   9.5461   9.5475   9.6608   9.6608
  0:      9.8389   9.8433   9.8799   9.8827  10.0308  10.0309  10.1189  10.1192
  0:     10.3116  10.3342  10.3385  10.3479  10.4507  10.4764  10.6816  10.6871
  0:     10.7183  10.7292  10.8391  10.8453  10.8909  10.9250  10.9623  10.9741
  0: 
  0:           k = 0.5530 0.0942 0.0000 ( 52598 PWs)   bands (ev):
  0: 
  0:    -17.1667 -17.1667 -17.1620 -17.1620 -15.0225 -15.0223 -15.0159 -15.0158
  0:    -14.9994 -14.9993 -14.9935 -14.9931 -13.2968 -13.2968 -13.2644 -13.2643
  0:    -12.5646 -12.5629 -12.5334 -12.5329 -12.5115 -12.5097 -12.4569 -12.4541
  0:    -12.4223 -12.4217 -12.4097 -12.4094 -11.9221 -11.9219 -11.8448 -11.8446
  0:    -11.5617 -11.5617 -11.3029 -11.2986 -11.2076 -11.1963 -11.1569 -11.1496
  0:    -11.0528 -11.0518 -10.9213 -10.9199  -9.4598  -9.4597  -9.3712  -9.3712
  0:     -7.8458  -7.8458  -7.7782  -7.7782  -6.5462  -6.5461  -6.5292  -6.5292
  0:     -6.2992  -6.2991  -6.2853  -6.2853  -4.9653  -4.9651  -4.8199  -4.8197
  0:     -4.7813  -4.7812  -4.6949  -4.6948  -3.5552  -3.5544  -3.5005  -3.4991
  0:     -3.0150  -3.0148  -2.7682  -2.7678  -2.7198  -2.7191  -2.6727  -2.6719
  0:     -2.1677  -2.1670  -2.0981  -2.0981  -1.6635  -1.6609  -1.5469  -1.5430
  0:     -1.4625  -1.4588  -1.3243  -1.3241  -0.7485  -0.7476  -0.4081  -0.4032
  0:     -0.2813  -0.2735  -0.1115  -0.0959   0.1677   0.1779   0.2421   0.2823
  0:      0.3021   0.3413   0.3776   0.4122   0.5201   0.5381   0.6416   0.6949
  0:      0.7402   0.7488   0.7871   0.8218   0.8545   0.8838   0.9742   0.9860
  0:      1.0359   1.0503   1.0905   1.0952   1.1439   1.1631   1.2169   1.2254
  0:      1.3271   1.3316   1.4289   1.4459   1.6709   1.6912   1.7501   1.7562
  0:      5.0054   5.0386   5.5823   5.5933   5.9291   6.0121   6.4591   6.4793
  0:      6.6141   6.6766   6.9305   6.9391   7.0013   7.0127   7.0671   7.0808
  0:      8.0514   8.0683   8.3335   8.3514   8.4507   8.4631   8.5511   8.5519
  0:      8.6675   8.6852   8.7614   8.7719   8.9446   8.9472   9.1249   9.1290
  0:      9.1518   9.1526   9.5134   9.5170   9.5515   9.5517   9.6502   9.6507
  0:      9.8613   9.8642   9.8722   9.8768  10.0380  10.0393  10.1235  10.1254
  0:     10.2991  10.3255  10.3375  10.3447  10.4576  10.4822  10.6738  10.6789
  0:     10.7094  10.7194  10.8383  10.8414  10.8810  10.9206  10.9720  10.9848
  0: 
  0:           k = 0.5530 0.1177 0.0000 ( 52596 PWs)   bands (ev):
  0: 
  0:    -17.1666 -17.1666 -17.1620 -17.1620 -15.0224 -15.0222 -15.0160 -15.0159
  0:    -14.9993 -14.9993 -14.9936 -14.9932 -13.2964 -13.2963 -13.2648 -13.2648
  0:    -12.5641 -12.5619 -12.5327 -12.5321 -12.5122 -12.5102 -12.4587 -12.4552
  0:    -12.4220 -12.4213 -12.4097 -12.4093 -11.9216 -11.9214 -11.8470 -11.8468
  0:    -11.5584 -11.5583 -11.3118 -11.3077 -11.2025 -11.1909 -11.1512 -11.1433
  0:    -11.0545 -11.0532 -10.9239 -10.9222  -9.4580  -9.4579  -9.3720  -9.3720
  0:     -7.8452  -7.8451  -7.7795  -7.7794  -6.5457  -6.5456  -6.5293  -6.5293
  0:     -6.2989  -6.2988  -6.2854  -6.2854  -4.9619  -4.9616  -4.8212  -4.8210
  0:     -4.7815  -4.7814  -4.6970  -4.6968  -3.5575  -3.5565  -3.5050  -3.5033
  0:     -3.0108  -3.0105  -2.7689  -2.7684  -2.7205  -2.7196  -2.6769  -2.6760
  0:     -2.1678  -2.1669  -2.1004  -2.1003  -1.6620  -1.6591  -1.5463  -1.5417
  0:     -1.4524  -1.4482  -1.3272  -1.3269  -0.7412  -0.7402  -0.3984  -0.3931
  0:     -0.2835  -0.2738  -0.1201  -0.1005   0.1570   0.1695   0.2373   0.2718
  0:      0.3032   0.3409   0.3872   0.4232   0.5096   0.5317   0.6364   0.6997
  0:      0.7386   0.7470   0.7854   0.8249   0.8585   0.8913   0.9737   0.9847
  0:      1.0261   1.0490   1.0877   1.0969   1.1435   1.1649   1.2199   1.2288
  0:      1.3262   1.3320   1.4276   1.4475   1.6709   1.6935   1.7577   1.7630
  0:      5.0088   5.0476   5.5717   5.5862   5.9269   6.0272   6.4532   6.4762
  0:      6.6050   6.6809   6.9174   6.9316   6.9906   7.0013   7.0611   7.0768
  0:      8.0615   8.0798   8.3265   8.3481   8.4509   8.4675   8.5473   8.5487
  0:      8.6568   8.6755   8.7686   8.7783   8.9457   8.9492   9.1190   9.1279
  0:      9.1600   9.1626   9.5006   9.5080   9.5606   9.5615   9.6432   9.6445
  0:      9.8507   9.8548   9.8939   9.8967  10.0469  10.0499  10.1300  10.1344
  0:     10.2873  10.3137  10.3364  10.3429  10.4638  10.4845  10.6641  10.6674
  0:     10.6959  10.7053  10.8402  10.8488  10.8780  10.9119  10.9842  10.9983
  0: 
  0:           k = 0.5530 0.1413 0.0000 ( 52582 PWs)   bands (ev):
  0: 
  0:    -17.1665 -17.1665 -17.1621 -17.1621 -15.0223 -15.0221 -15.0161 -15.0159
  0:    -14.9993 -14.9991 -14.9938 -14.9933 -13.2958 -13.2958 -13.2654 -13.2654
  0:    -12.5634 -12.5607 -12.5318 -12.5313 -12.5130 -12.5108 -12.4607 -12.4566
  0:    -12.4216 -12.4208 -12.4097 -12.4093 -11.9210 -11.9207 -11.8497 -11.8495
  0:    -11.5543 -11.5543 -11.3212 -11.3174 -11.1971 -11.1858 -11.1442 -11.1363
  0:    -11.0566 -11.0550 -10.9271 -10.9251  -9.4558  -9.4557  -9.3729  -9.3729
  0:     -7.8443  -7.8443  -7.7810  -7.7809  -6.5452  -6.5450  -6.5293  -6.5293
  0:     -6.2986  -6.2985  -6.2856  -6.2855  -4.9578  -4.9575  -4.8229  -4.8225
  0:     -4.7817  -4.7815  -4.6995  -4.6993  -3.5603  -3.5591  -3.5103  -3.5083
  0:     -3.0057  -3.0053  -2.7695  -2.7691  -2.7214  -2.7204  -2.6819  -2.6811
  0:     -2.1677  -2.1668  -2.1031  -2.1030  -1.6594  -1.6563  -1.5452  -1.5401
  0:     -1.4412  -1.4368  -1.3308  -1.3304  -0.7321  -0.7308  -0.3868  -0.3817
  0:     -0.2858  -0.2742  -0.1297  -0.1061   0.1451   0.1603   0.2307   0.2585
  0:      0.3035   0.3405   0.4000   0.4325   0.4985   0.5256   0.6322   0.7038
  0:      0.7373   0.7446   0.7855   0.8290   0.8626   0.8976   0.9735   0.9826
  0:      1.0170   1.0484   1.0838   1.0976   1.1441   1.1669   1.2236   1.2325
  0:      1.3247   1.3318   1.4262   1.4485   1.6723   1.6962   1.7663   1.7703
  0:      5.0144   5.0572   5.5591   5.5776   5.9270   6.0424   6.4462   6.4701
  0:      6.5974   6.6848   6.9013   6.9227   6.9801   6.9884   7.0546   7.0716
  0:      8.0722   8.0905   8.3181   8.3428   8.4520   8.4735   8.5439   8.5461
  0:      8.6462   8.6649   8.7779   8.7859   8.9457   8.9502   9.1114   9.1234
  0:      9.1723   9.1765   9.4856   9.4966   9.5726   9.5744   9.6395   9.6418
  0:      9.8343   9.8392   9.9171   9.9172  10.0571  10.0625  10.1384  10.1457
  0:     10.2769  10.3007  10.3358  10.3415  10.4684  10.4836  10.6534  10.6541
  0:     10.6798  10.6899  10.8322  10.8646  10.8909  10.8985  10.9988  11.0150
  0: 
  0:           k = 0.5530 0.1648 0.0000 ( 52582 PWs)   bands (ev):
  0: 
  0:    -17.1664 -17.1664 -17.1622 -17.1622 -15.0222 -15.0219 -15.0163 -15.0160
  0:    -14.9992 -14.9990 -14.9939 -14.9934 -13.2952 -13.2952 -13.2661 -13.2661
  0:    -12.5626 -12.5594 -12.5308 -12.5304 -12.5138 -12.5116 -12.4630 -12.4583
  0:    -12.4212 -12.4203 -12.4097 -12.4092 -11.9202 -11.9200 -11.8527 -11.8524
  0:    -11.5497 -11.5497 -11.3309 -11.3275 -11.1915 -11.1808 -11.1362 -11.1286
  0:    -11.0590 -11.0571 -10.9308 -10.9285  -9.4533  -9.4532  -9.3740  -9.3740
  0:     -7.8434  -7.8433  -7.7827  -7.7826  -6.5445  -6.5444  -6.5293  -6.5293
  0:     -6.2983  -6.2981  -6.2858  -6.2857  -4.9530  -4.9527  -4.8247  -4.8244
  0:     -4.7818  -4.7816  -4.7024  -4.7022  -3.5633  -3.5619  -3.5162  -3.5139
  0:     -2.9996  -2.9992  -2.7701  -2.7697  -2.7228  -2.7215  -2.6876  -2.6869
  0:     -2.1677  -2.1666  -2.1062  -2.1061  -1.6557  -1.6525  -1.5438  -1.5383
  0:     -1.4297  -1.4252  -1.3350  -1.3344  -0.7208  -0.7195  -0.3737  -0.3696
  0:     -0.2880  -0.2744  -0.1399  -0.1126   0.1319   0.1503   0.2220   0.2440
  0:      0.3020   0.3403   0.4143   0.4382   0.4878   0.5217   0.6290   0.7072
  0:      0.7363   0.7419   0.7872   0.8342   0.8664   0.9019   0.9732   0.9799
  0:      1.0094   1.0478   1.0794   1.0975   1.1453   1.1690   1.2280   1.2365
  0:      1.3222   1.3310   1.4247   1.4488   1.6751   1.6994   1.7754   1.7777
  0:      5.0224   5.0674   5.5446   5.5675   5.9296   6.0574   6.4377   6.4603
  0:      6.5919   6.6885   6.8831   6.9126   6.9700   6.9748   7.0478   7.0655
  0:      8.0826   8.0995   8.3081   8.3352   8.4545   8.4810   8.5415   8.5443
  0:      8.6365   8.6544   8.7896   8.7949   8.9436   8.9491   9.1039   9.1182
  0:      9.1870   9.1918   9.4698   9.4842   9.5868   9.5894   9.6386   9.6416
  0:      9.8167   9.8220   9.9338   9.9368  10.0679  10.0763  10.1482  10.1580
  0:     10.2684  10.2878  10.3363  10.3406  10.4714  10.4806  10.6405  10.6424
  0:     10.6632  10.6746  10.8179  10.8790  10.8873  10.9131  11.0148  11.0350
  0: 
  0:           k = 0.5530 0.1883 0.0000 ( 52588 PWs)   bands (ev):
  0: 
  0:    -17.1663 -17.1663 -17.1623 -17.1623 -15.0220 -15.0217 -15.0164 -15.0162
  0:    -14.9990 -14.9989 -14.9941 -14.9935 -13.2945 -13.2944 -13.2669 -13.2668
  0:    -12.5616 -12.5579 -12.5295 -12.5295 -12.5145 -12.5126 -12.4655 -12.4602
  0:    -12.4207 -12.4198 -12.4098 -12.4092 -11.9194 -11.9191 -11.8559 -11.8556
  0:    -11.5446 -11.5445 -11.3407 -11.3377 -11.1858 -11.1760 -11.1277 -11.1204
  0:    -11.0616 -11.0595 -10.9350 -10.9324  -9.4505  -9.4504  -9.3753  -9.3753
  0:     -7.8422  -7.8422  -7.7846  -7.7845  -6.5438  -6.5437  -6.5294  -6.5294
  0:     -6.2979  -6.2977  -6.2860  -6.2859  -4.9477  -4.9473  -4.8269  -4.8265
  0:     -4.7818  -4.7816  -4.7057  -4.7055  -3.5665  -3.5649  -3.5226  -3.5200
  0:     -2.9927  -2.9922  -2.7706  -2.7704  -2.7247  -2.7233  -2.6938  -2.6933
  0:     -2.1675  -2.1664  -2.1095  -2.1095  -1.6508  -1.6475  -1.5418  -1.5361
  0:     -1.4183  -1.4141  -1.3397  -1.3390  -0.7075  -0.7060  -0.3594  -0.3572
  0:     -0.2901  -0.2744  -0.1507  -0.1198   0.1177   0.1397   0.2112   0.2285
  0:      0.2994   0.3404   0.4267   0.4384   0.4804   0.5223   0.6268   0.7099
  0:      0.7357   0.7395   0.7898   0.8405   0.8699   0.9039   0.9722   0.9771
  0:      1.0045   1.0463   1.0756   1.0973   1.1468   1.1712   1.2327   1.2405
  0:      1.3189   1.3298   1.4226   1.4482   1.6793   1.7035   1.7845   1.7849
  0:      5.0328   5.0782   5.5282   5.5559   5.9348   6.0721   6.4277   6.4467
  0:      6.5887   6.6919   6.8638   6.9016   6.9602   6.9609   7.0407   7.0586
  0:      8.0917   8.1064   8.2966   8.3255   8.4587   8.4901   8.5404   8.5436
  0:      8.6280   8.6446   8.8036   8.8056   8.9385   8.9451   9.0977   9.1141
  0:      9.2028   9.2077   9.4542   9.4716   9.6026   9.6059   9.6399   9.6433
  0:      9.7989   9.8043   9.9465   9.9524  10.0784  10.0903  10.1580  10.1686
  0:     10.2621  10.2758  10.3392  10.3408  10.4737  10.4770  10.6278  10.6314
  0:     10.6477  10.6597  10.8026  10.8601  10.9086  10.9382  11.0282  11.0577
  0: 
  0:           k = 0.5530 0.2119 0.0000 ( 52580 PWs)   bands (ev):
  0: 
  0:    -17.1661 -17.1661 -17.1624 -17.1624 -15.0219 -15.0216 -15.0166 -15.0163
  0:    -14.9989 -14.9987 -14.9943 -14.9936 -13.2937 -13.2936 -13.2677 -13.2677
  0:    -12.5605 -12.5563 -12.5289 -12.5281 -12.5149 -12.5137 -12.4682 -12.4623
  0:    -12.4202 -12.4192 -12.4099 -12.4093 -11.9184 -11.9181 -11.8594 -11.8591
  0:    -11.5389 -11.5389 -11.3507 -11.3481 -11.1800 -11.1711 -11.1187 -11.1120
  0:    -11.0646 -11.0623 -10.9397 -10.9368  -9.4475  -9.4474  -9.3768  -9.3768
  0:     -7.8409  -7.8409  -7.7868  -7.7867  -6.5431  -6.5429  -6.5295  -6.5295
  0:     -6.2975  -6.2973  -6.2862  -6.2861  -4.9419  -4.9415  -4.8292  -4.8288
  0:     -4.7817  -4.7815  -4.7094  -4.7092  -3.5698  -3.5680  -3.5292  -3.5264
  0:     -2.9850  -2.9844  -2.7711  -2.7711  -2.7273  -2.7258  -2.7001  -2.7000
  0:     -2.1672  -2.1660  -2.1131  -2.1130  -1.6446  -1.6413  -1.5394  -1.5336
  0:     -1.4077  -1.4039  -1.3448  -1.3439  -0.6918  -0.6903  -0.3453  -0.3443
  0:     -0.2919  -0.2739  -0.1616  -0.1276   0.1027   0.1284   0.1986   0.2119
  0:      0.2965   0.3408   0.4316   0.4331   0.4815   0.5275   0.6256   0.7120
  0:      0.7355   0.7376   0.7929   0.8476   0.8731   0.9031   0.9705   0.9745
  0:      1.0026   1.0432   1.0731   1.0974   1.1482   1.1735   1.2376   1.2442
  0:      1.3150   1.3284   1.4199   1.4466   1.6850   1.7086   1.7919   1.7932
  0:      5.0456   5.0895   5.5101   5.5429   5.9426   6.0862   6.4159   6.4299
  0:      6.5877   6.6953   6.8443   6.8899   6.9473   6.9507   7.0334   7.0508
  0:      8.0991   8.1109   8.2835   8.3136   8.4648   8.5003   8.5409   8.5440
  0:      8.6213   8.6361   8.8182   8.8201   8.9301   8.9375   9.0935   9.1120
  0:      9.2190   9.2235   9.4389   9.4589   9.6193   9.6232   9.6432   9.6469
  0:      9.7816   9.7866   9.9560   9.9642  10.0875  10.1034  10.1656  10.1743
  0:     10.2582  10.2657  10.3427  10.3456  10.4746  10.4763  10.6160  10.6204
  0:     10.6338  10.6449  10.7893  10.8396  10.9314  10.9637  11.0336  11.0811
  0: 
  0:           k = 0.5530 0.2354 0.0000 ( 52576 PWs)   bands (ev):
  0: 
  0:    -17.1660 -17.1660 -17.1625 -17.1625 -15.0217 -15.0213 -15.0168 -15.0164
  0:    -14.9988 -14.9985 -14.9945 -14.9938 -13.2928 -13.2927 -13.2686 -13.2686
  0:    -12.5592 -12.5545 -12.5286 -12.5266 -12.5149 -12.5149 -12.4711 -12.4646
  0:    -12.4196 -12.4186 -12.4100 -12.4094 -11.9172 -11.9170 -11.8630 -11.8627
  0:    -11.5329 -11.5328 -11.3607 -11.3584 -11.1741 -11.1660 -11.1095 -11.1033
  0:    -11.0678 -11.0653 -10.9449 -10.9416  -9.4442  -9.4441  -9.3785  -9.3785
  0:     -7.8395  -7.8394  -7.7891  -7.7890  -6.5422  -6.5421  -6.5297  -6.5297
  0:     -6.2970  -6.2968  -6.2865  -6.2864  -4.9358  -4.9353  -4.8318  -4.8313
  0:     -4.7814  -4.7812  -4.7134  -4.7132  -3.5731  -3.5711  -3.5360  -3.5330
  0:     -2.9764  -2.9758  -2.7720  -2.7717  -2.7310  -2.7295  -2.7065  -2.7062
  0:     -2.1668  -2.1656  -2.1168  -2.1167  -1.6373  -1.6341  -1.5365  -1.5308
  0:     -1.3981  -1.3950  -1.3502  -1.3493  -0.6739  -0.6723  -0.3345  -0.3292
  0:     -0.2934  -0.2728  -0.1724  -0.1358   0.0870   0.1164   0.1843   0.1940
  0:      0.2939   0.3416   0.4245   0.4271   0.4929   0.5353   0.6251   0.7135
  0:      0.7359   0.7366   0.7962   0.8547   0.8765   0.8996   0.9689   0.9723
  0:      1.0029   1.0385   1.0719   1.0980   1.1495   1.1759   1.2424   1.2472
  0:      1.3105   1.3272   1.4162   1.4440   1.6920   1.7146   1.7982   1.8013
  0:      5.0609   5.1014   5.4905   5.5284   5.9532   6.0995   6.4023   6.4104
  0:      6.5884   6.6987   6.8254   6.8776   6.9345   6.9417   7.0259   7.0424
  0:      8.1045   8.1133   8.2692   8.2998   8.4727   8.5109   8.5431   8.5453
  0:      8.6165   8.6293   8.8325   8.8392   8.9185   8.9262   9.0917   9.1122
  0:      9.2350   9.2385   9.4242   9.4461   9.6348   9.6394   9.6500   9.6532
  0:      9.7656   9.7698   9.9632   9.9728  10.0942  10.1139  10.1687  10.1730
  0:     10.2570  10.2583  10.3472  10.3559  10.4748  10.4804  10.6050  10.6087
  0:     10.6215  10.6299  10.7807  10.8220  10.9537  10.9885  11.0312  11.0951
  0: 
  0:           k = 0.5530 0.2590 0.0000 ( 52592 PWs)   bands (ev):
  0: 
  0:    -17.1658 -17.1658 -17.1626 -17.1626 -15.0215 -15.0211 -15.0170 -15.0166
  0:    -14.9986 -14.9983 -14.9947 -14.9939 -13.2918 -13.2918 -13.2696 -13.2696
  0:    -12.5579 -12.5527 -12.5287 -12.5249 -12.5162 -12.5143 -12.4740 -12.4670
  0:    -12.4190 -12.4180 -12.4101 -12.4095 -11.9160 -11.9157 -11.8666 -11.8663
  0:    -11.5264 -11.5263 -11.3707 -11.3687 -11.1681 -11.1608 -11.1002 -11.0945
  0:    -11.0711 -11.0685 -10.9505 -10.9470  -9.4407  -9.4406  -9.3804  -9.3804
  0:     -7.8378  -7.8378  -7.7916  -7.7915  -6.5414  -6.5412  -6.5298  -6.5298
  0:     -6.2965  -6.2963  -6.2868  -6.2867  -4.9293  -4.9288  -4.8346  -4.8341
  0:     -4.7809  -4.7807  -4.7177  -4.7175  -3.5763  -3.5741  -3.5429  -3.5397
  0:     -2.9671  -2.9663  -2.7734  -2.7725  -2.7358  -2.7345  -2.7121  -2.7115
  0:     -2.1662  -2.1650  -2.1207  -2.1206  -1.6289  -1.6258  -1.5333  -1.5277
  0:     -1.3900  -1.3880  -1.3556  -1.3548  -0.6538  -0.6521  -0.3258  -0.3151
  0:     -0.2940  -0.2707  -0.1828  -0.1442   0.0710   0.1040   0.1685   0.1748
  0:      0.2924   0.3429   0.4148   0.4183   0.5090   0.5437   0.6252   0.7139
  0:      0.7365   0.7374   0.7993   0.8603   0.8815   0.8942   0.9675   0.9706
  0:      1.0048   1.0329   1.0712   1.0989   1.1507   1.1784   1.2470   1.2490
  0:      1.3060   1.3268   1.4116   1.4404   1.7002   1.7216   1.8036   1.8084
  0:      5.0785   5.1139   5.4695   5.5124   5.9664   6.1120   6.3868   6.3893
  0:      6.5904   6.7021   6.8073   6.8648   6.9232   6.9332   7.0181   7.0333
  0:      8.1079   8.1141   8.2541   8.2846   8.4822   8.5209   8.5470   8.5474
  0:      8.6139   8.6249   8.8474   8.8606   8.9053   8.9119   9.0918   9.1145
  0:      9.2502   9.2523   9.4099   9.4332   9.6448   9.6498   9.6635   9.6661
  0:      9.7521   9.7547   9.9687   9.9787  10.0977  10.1202  10.1647  10.1664
  0:     10.2548  10.2582  10.3547  10.3690  10.4791  10.4867  10.5937  10.5953
  0:     10.6104  10.6149  10.7791  10.8106  10.9744  11.0120  11.0251  11.0867
  0: 
  0:           k = 0.5530 0.2825 0.0000 ( 52592 PWs)   bands (ev):
  0: 
  0:    -17.1657 -17.1657 -17.1628 -17.1628 -15.0213 -15.0209 -15.0172 -15.0168
  0:    -14.9985 -14.9981 -14.9949 -14.9941 -13.2908 -13.2907 -13.2707 -13.2707
  0:    -12.5564 -12.5507 -12.5293 -12.5231 -12.5177 -12.5132 -12.4771 -12.4696
  0:    -12.4184 -12.4174 -12.4103 -12.4096 -11.9145 -11.9143 -11.8704 -11.8700
  0:    -11.5196 -11.5195 -11.3807 -11.3790 -11.1621 -11.1554 -11.0909 -11.0861
  0:    -11.0742 -11.0719 -10.9565 -10.9528  -9.4370  -9.4369  -9.3825  -9.3825
  0:     -7.8361  -7.8360  -7.7942  -7.7941  -6.5405  -6.5404  -6.5301  -6.5300
  0:     -6.2959  -6.2957  -6.2871  -6.2870  -4.9225  -4.9220  -4.8377  -4.8371
  0:     -4.7802  -4.7800  -4.7223  -4.7221  -3.5793  -3.5769  -3.5496  -3.5462
  0:     -2.9570  -2.9562  -2.7757  -2.7740  -2.7411  -2.7406  -2.7168  -2.7161
  0:     -2.1655  -2.1643  -2.1246  -2.1244  -1.6196  -1.6167  -1.5300  -1.5246
  0:     -1.3836  -1.3832  -1.3605  -1.3603  -0.6314  -0.6297  -0.3201  -0.3066
  0:     -0.2899  -0.2676  -0.1923  -0.1526   0.0552   0.0913   0.1516   0.1544
  0:      0.2922   0.3447   0.4056   0.4085   0.5263   0.5513   0.6253   0.7128
  0:      0.7378   0.7403   0.8022   0.8631   0.8881   0.8889   0.9659   0.9695
  0:      1.0080   1.0271   1.0703   1.0999   1.1520   1.1812   1.2491   1.2509
  0:      1.3019   1.3275   1.4061   1.4358   1.7094   1.7295   1.8080   1.8142
  0:      5.0983   5.1270   5.4474   5.4949   5.9822   6.1237   6.3671   6.3694
  0:      6.5935   6.7053   6.7903   6.8513   6.9143   6.9258   7.0100   7.0237
  0:      8.1098   8.1140   8.2384   8.2684   8.4928   8.5294   8.5501   8.5522
  0:      8.6135   8.6237   8.8566   8.8803   8.8974   8.8991   9.0933   9.1183
  0:      9.2641   9.2643   9.3958   9.4199   9.6513   9.6560   9.6807   9.6817
  0:      9.7428   9.7434   9.9729   9.9824  10.0977  10.1211  10.1507  10.1586
  0:     10.2560  10.2616  10.3643  10.3829  10.4876  10.4948  10.5795  10.5798
  0:     10.6000  10.6029  10.7852  10.8082  10.9885  11.0227  11.0323  11.0722
  0: 
  0:           k = 0.5530 0.3061 0.0000 ( 52586 PWs)   bands (ev):
  0: 
  0:    -17.1655 -17.1655 -17.1629 -17.1629 -15.0210 -15.0206 -15.0174 -15.0170
  0:    -14.9983 -14.9979 -14.9951 -14.9943 -13.2897 -13.2896 -13.2719 -13.2718
  0:    -12.5549 -12.5486 -12.5304 -12.5214 -12.5189 -12.5116 -12.4803 -12.4724
  0:    -12.4177 -12.4168 -12.4106 -12.4099 -11.9130 -11.9127 -11.8741 -11.8738
  0:    -11.5125 -11.5123 -11.3905 -11.3891 -11.1560 -11.1499 -11.0826 -11.0820
  0:    -11.0747 -11.0732 -10.9630 -10.9590  -9.4333  -9.4331  -9.3848  -9.3848
  0:     -7.8342  -7.8341  -7.7969  -7.7968  -6.5396  -6.5395  -6.5303  -6.5303
  0:     -6.2954  -6.2951  -6.2875  -6.2873  -4.9157  -4.9151  -4.8409  -4.8403
  0:     -4.7792  -4.7789  -4.7270  -4.7269  -3.5820  -3.5794  -3.5560  -3.5525
  0:     -2.9462  -2.9453  -2.7798  -2.7773  -2.7464  -2.7459  -2.7207  -2.7199
  0:     -2.1645  -2.1635  -2.1284  -2.1282  -1.6095  -1.6069  -1.5268  -1.5216
  0:     -1.3813  -1.3793  -1.3653  -1.3644  -0.6071  -0.6054  -0.3181  -0.3071
  0:     -0.2786  -0.2636  -0.2005  -0.1605   0.0401   0.0787   0.1331   0.1338
  0:      0.2935   0.3470   0.3976   0.3987   0.5434   0.5575   0.6249   0.7097
  0:      0.7407   0.7453   0.8044   0.8632   0.8827   0.8984   0.9634   0.9690
  0:      1.0125   1.0218   1.0686   1.1004   1.1539   1.1842   1.2473   1.2534
  0:      1.2991   1.3296   1.3996   1.4302   1.7195   1.7382   1.8112   1.8186
  0:      5.1201   5.1409   5.4245   5.4760   6.0005   6.1345   6.3445   6.3502
  0:      6.5978   6.7085   6.7741   6.8371   6.9081   6.9199   7.0015   7.0135
  0:      8.1107   8.1136   8.2226   8.2515   8.5039   8.5360   8.5530   8.5576
  0:      8.6156   8.6265   8.8486   8.8713   8.9070   8.9152   9.0955   9.1227
  0:      9.2742   9.2761   9.3819   9.4060   9.6570   9.6615   9.6924   9.6951
  0:      9.7379   9.7437   9.9759   9.9840  10.0942  10.1170  10.1327  10.1464
  0:     10.2619  10.2672  10.3747  10.3958  10.4995  10.5027  10.5612  10.5623
  0:     10.5911  10.5977  10.7985  10.8150  10.9858  11.0353  11.0363  11.0699
  0: 
  0:           k = 0.5530 0.3296 0.0000 ( 52582 PWs)   bands (ev):
  0: 
  0:    -17.1653 -17.1653 -17.1631 -17.1631 -15.0208 -15.0204 -15.0176 -15.0172
  0:    -14.9981 -14.9976 -14.9954 -14.9945 -13.2886 -13.2885 -13.2730 -13.2730
  0:    -12.5533 -12.5465 -12.5317 -12.5216 -12.5183 -12.5096 -12.4835 -12.4752
  0:    -12.4171 -12.4161 -12.4108 -12.4101 -11.9112 -11.9110 -11.8777 -11.8775
  0:    -11.5051 -11.5049 -11.4003 -11.3991 -11.1499 -11.1442 -11.0849 -11.0816
  0:    -11.0705 -11.0655 -10.9698 -10.9656  -9.4294  -9.4292  -9.3873  -9.3872
  0:     -7.8321  -7.8320  -7.7997  -7.7996  -6.5387  -6.5386  -6.5307  -6.5306
  0:     -6.2948  -6.2945  -6.2879  -6.2877  -4.9088  -4.9082  -4.8444  -4.8438
  0:     -4.7778  -4.7776  -4.7319  -4.7318  -3.5843  -3.5815  -3.5621  -3.5585
  0:     -2.9349  -2.9339  -2.7865  -2.7833  -2.7503  -2.7490  -2.7242  -2.7234
  0:     -2.1634  -2.1624  -2.1323  -2.1320  -1.5989  -1.5966  -1.5241  -1.5192
  0:     -1.3821  -1.3776  -1.3691  -1.3668  -0.5810  -0.5794  -0.3202  -0.3120
  0:     -0.2658  -0.2592  -0.2069  -0.1676   0.0262   0.0667   0.1115   0.1157
  0:      0.2964   0.3498   0.3894   0.3911   0.5598   0.5625   0.6233   0.7044
  0:      0.7451   0.7524   0.8056   0.8612   0.8792   0.9087   0.9596   0.9689
  0:      1.0174   1.0183   1.0659   1.0998   1.1568   1.1876   1.2436   1.2535
  0:      1.2986   1.3333   1.3923   1.4238   1.7301   1.7476   1.8129   1.8215
  0:      5.1437   5.1556   5.4010   5.4556   6.0211   6.1448   6.3221   6.3292
  0:      6.6032   6.7118   6.7584   6.8225   6.9051   6.9160   6.9927   7.0029
  0:      8.1113   8.1137   8.2071   8.2344   8.5148   8.5413   8.5559   8.5616
  0:      8.6203   8.6335   8.8302   8.8517   8.9273   8.9423   9.0975   9.1270
  0:      9.2818   9.2860   9.3680   9.3917   9.6625   9.6665   9.6946   9.6996
  0:      9.7465   9.7561   9.9774   9.9833  10.0875  10.1091  10.1130  10.1314
  0:     10.2716  10.2748  10.3846  10.4063  10.5063  10.5100  10.5439  10.5445
  0:     10.5861  10.6012  10.8167  10.8278  10.9753  11.0191  11.0565  11.0853
  0: 
  0:           k = 0.5530 0.3531 0.0000 ( 52576 PWs)   bands (ev):
  0: 
  0:    -17.1651 -17.1651 -17.1633 -17.1633 -15.0206 -15.0201 -15.0179 -15.0174
  0:    -14.9979 -14.9974 -14.9956 -14.9948 -13.2874 -13.2873 -13.2743 -13.2742
  0:    -12.5516 -12.5443 -12.5333 -12.5232 -12.5161 -12.5073 -12.4867 -12.4782
  0:    -12.4165 -12.4155 -12.4112 -12.4104 -11.9093 -11.9092 -11.8813 -11.8811
  0:    -11.4974 -11.4972 -11.4099 -11.4089 -11.1439 -11.1385 -11.0891 -11.0854
  0:    -11.0617 -11.0567 -10.9770 -10.9727  -9.4255  -9.4253  -9.3900  -9.3899
  0:     -7.8299  -7.8298  -7.8026  -7.8025  -6.5378  -6.5377  -6.5311  -6.5310
  0:     -6.2942  -6.2939  -6.2883  -6.2882  -4.9019  -4.9013  -4.8481  -4.8475
  0:     -4.7760  -4.7758  -4.7369  -4.7368  -3.5862  -3.5832  -3.5677  -3.5640
  0:     -2.9230  -2.9218  -2.7956  -2.7923  -2.7519  -2.7503  -2.7275  -2.7267
  0:     -2.1621  -2.1611  -2.1360  -2.1357  -1.5879  -1.5860  -1.5223  -1.5178
  0:     -1.3845  -1.3788  -1.3708  -1.3685  -0.5535  -0.5522  -0.3267  -0.3200
  0:     -0.2546  -0.2536  -0.2116  -0.1737   0.0141   0.0558   0.0901   0.0981
  0:      0.3009   0.3531   0.3804   0.3861   0.5666   0.5753   0.6202   0.6972
  0:      0.7506   0.7615   0.8053   0.8575   0.8784   0.9192   0.9543   0.9689
  0:      1.0143   1.0252   1.0620   1.0978   1.1611   1.1915   1.2383   1.2509
  0:      1.3011   1.3383   1.3843   1.4167   1.7411   1.7574   1.8132   1.8226
  0:      5.1689   5.1712   5.3773   5.4337   6.0438   6.1547   6.3004   6.3067
  0:      6.6100   6.7152   6.7429   6.8077   6.9049   6.9143   6.9835   6.9919
  0:      8.1122   8.1149   8.1921   8.2175   8.5249   8.5457   8.5585   8.5639
  0:      8.6278   8.6445   8.8089   8.8308   8.9510   8.9710   9.0985   9.1303
  0:      9.2872   9.2937   9.3544   9.3769   9.6677   9.6712   9.6925   9.6971
  0:      9.7658   9.7761   9.9766   9.9799  10.0774  10.0946  10.0992  10.1157
  0:     10.2839  10.2842  10.3928  10.4130  10.5012  10.5064  10.5310  10.5368
  0:     10.5903  10.6146  10.8356  10.8395  10.9682  10.9995  11.0796  11.1009
  0: 
  0:           k = 0.5530 0.3767 0.0000 ( 52580 PWs)   bands (ev):
  0: 
  0:    -17.1650 -17.1650 -17.1634 -17.1634 -15.0203 -15.0198 -15.0181 -15.0177
  0:    -14.9977 -14.9971 -14.9958 -14.9950 -13.2861 -13.2860 -13.2756 -13.2755
  0:    -12.5498 -12.5421 -12.5349 -12.5250 -12.5137 -12.5048 -12.4900 -12.4812
  0:    -12.4158 -12.4149 -12.4115 -12.4108 -11.9073 -11.9072 -11.8848 -11.8846
  0:    -11.4895 -11.4893 -11.4194 -11.4185 -11.1379 -11.1328 -11.0938 -11.0899
  0:    -11.0527 -11.0476 -10.9845 -10.9800  -9.4215  -9.4213  -9.3929  -9.3928
  0:     -7.8276  -7.8275  -7.8055  -7.8054  -6.5370  -6.5368  -6.5315  -6.5314
  0:     -6.2935  -6.2933  -6.2888  -6.2887  -4.8952  -4.8946  -4.8521  -4.8514
  0:     -4.7738  -4.7736  -4.7419  -4.7419  -3.5875  -3.5843  -3.5727  -3.5690
  0:     -2.9106  -2.9093  -2.8065  -2.8034  -2.7517  -2.7500  -2.7307  -2.7299
  0:     -2.1605  -2.1596  -2.1395  -2.1392  -1.5768  -1.5753  -1.5217  -1.5177
  0:     -1.3867  -1.3811  -1.3718  -1.3705  -0.5251  -0.5241  -0.3373  -0.3317
  0:     -0.2500  -0.2422  -0.2150  -0.1789   0.0049   0.0466   0.0696   0.0815
  0:      0.3066   0.3567   0.3717   0.3823   0.5704   0.5899   0.6157   0.6882
  0:      0.7569   0.7722   0.8034   0.8524   0.8807   0.9291   0.9475   0.9688
  0:      1.0131   1.0329   1.0569   1.0941   1.1666   1.1960   1.2316   1.2460
  0:      1.3061   1.3445   1.3756   1.4090   1.7521   1.7673   1.8118   1.8220
  0:      5.1877   5.1952   5.3536   5.4105   6.0682   6.1646   6.2797   6.2826
  0:      6.6183   6.7191   6.7274   6.7932   6.9074   6.9150   6.9740   6.9808
  0:      8.1137   8.1174   8.1779   8.2010   8.5339   8.5495   8.5604   8.5647
  0:      8.6380   8.6583   8.7867   8.8096   8.9758   9.0001   9.0979   9.1316
  0:      9.2909   9.2995   9.3412   9.3623   9.6725   9.6754   9.6900   9.6935
  0:      9.7893   9.7994   9.9719   9.9728  10.0643  10.0806  10.0884  10.1016
  0:     10.2954  10.2978  10.3974  10.4137  10.4904  10.4944  10.5217  10.5335
  0:     10.6079  10.6364  10.8400  10.8481  10.9741  10.9868  11.1026  11.1110
  0: 
  0:           k = 0.5530 0.4002 0.0000 ( 52590 PWs)   bands (ev):
  0: 
  0:    -17.1648 -17.1648 -17.1636 -17.1636 -15.0200 -15.0195 -15.0184 -15.0179
  0:    -14.9975 -14.9969 -14.9961 -14.9953 -13.2849 -13.2847 -13.2769 -13.2768
  0:    -12.5480 -12.5399 -12.5367 -12.5270 -12.5111 -12.5021 -12.4932 -12.4842
  0:    -12.4152 -12.4143 -12.4120 -12.4112 -11.9050 -11.9050 -11.8882 -11.8880
  0:    -11.4814 -11.4811 -11.4288 -11.4280 -11.1319 -11.1270 -11.0987 -11.0946
  0:    -11.0436 -11.0387 -10.9923 -10.9877  -9.4176  -9.4174  -9.3959  -9.3959
  0:     -7.8251  -7.8250  -7.8085  -7.8083  -6.5361  -6.5360  -6.5320  -6.5319
  0:     -6.2929  -6.2927  -6.2893  -6.2892  -4.8887  -4.8881  -4.8563  -4.8557
  0:     -4.7711  -4.7710  -4.7469  -4.7468  -3.5881  -3.5849  -3.5771  -3.5734
  0:     -2.8978  -2.8963  -2.8186  -2.8158  -2.7504  -2.7488  -2.7340  -2.7331
  0:     -2.1587  -2.1579  -2.1429  -2.1425  -1.5658  -1.5648  -1.5228  -1.5195
  0:     -1.3879  -1.3827  -1.3734  -1.3733  -0.4963  -0.4957  -0.3519  -0.3470
  0:     -0.2452  -0.2316  -0.2180  -0.1838  -0.0008   0.0397   0.0506   0.0666
  0:      0.3135   0.3605   0.3632   0.3792   0.5744   0.6037   0.6099   0.6779
  0:      0.7637   0.7838   0.8000   0.8459   0.8857   0.9381   0.9395   0.9678
  0:      1.0142   1.0413   1.0509   1.0889   1.1734   1.2010   1.2240   1.2399
  0:      1.3128   1.3515   1.3666   1.4009   1.7628   1.7772   1.8089   1.8197
  0:      5.2052   5.2225   5.3302   5.3859   6.0940   6.1748   6.2573   6.2602
  0:      6.6281   6.7118   6.7237   6.7794   6.9122   6.9180   6.9643   6.9696
  0:      8.1165   8.1217   8.1648   8.1853   8.5415   8.5527   8.5613   8.5645
  0:      8.6509   8.6741   8.7646   8.7885   9.0004   9.0284   9.0947   9.1301
  0:      9.2934   9.3038   9.3290   9.3483   9.6767   9.6790   9.6882   9.6907
  0:      9.8148   9.8243   9.9612   9.9613  10.0527  10.0700  10.0788  10.0900
  0:     10.3081  10.3126  10.3964  10.4061  10.4818  10.4879  10.5134  10.5269
  0:     10.6349  10.6642  10.8250  10.8450  10.9895  10.9957  11.1119  11.1225
  0: 
  0:           k = 0.5530 0.4238 0.0000 ( 52594 PWs)   bands (ev):
  0: 
  0:    -17.1646 -17.1646 -17.1638 -17.1638 -15.0198 -15.0193 -15.0187 -15.0182
  0:    -14.9972 -14.9966 -14.9963 -14.9955 -13.2835 -13.2834 -13.2782 -13.2781
  0:    -12.5461 -12.5386 -12.5377 -12.5290 -12.5084 -12.4993 -12.4964 -12.4873
  0:    -12.4146 -12.4137 -12.4124 -12.4116 -11.9026 -11.9026 -11.8914 -11.8912
  0:    -11.4731 -11.4727 -11.4380 -11.4373 -11.1260 -11.1213 -11.1038 -11.0996
  0:    -11.0346 -11.0297 -11.0003 -10.9956  -9.4137  -9.4135  -9.3992  -9.3991
  0:     -7.8225  -7.8224  -7.8114  -7.8112  -6.5353  -6.5352  -6.5325  -6.5325
  0:     -6.2923  -6.2921  -6.2899  -6.2897  -4.8825  -4.8818  -4.8609  -4.8602
  0:     -4.7680  -4.7679  -4.7517  -4.7516  -3.5881  -3.5847  -3.5808  -3.5771
  0:     -2.8847  -2.8831  -2.8314  -2.8288  -2.7484  -2.7470  -2.7371  -2.7362
  0:     -2.1567  -2.1559  -2.1461  -2.1456  -1.5551  -1.5547  -1.5258  -1.5232
  0:     -1.3877  -1.3831  -1.3766  -1.3755  -0.4676  -0.4675  -0.3700  -0.3660
  0:     -0.2402  -0.2216  -0.2213  -0.1893  -0.0022   0.0336   0.0358   0.0541
  0:      0.3211   0.3547   0.3642   0.3765   0.5790   0.6034   0.6170   0.6666
  0:      0.7706   0.7954   0.7958   0.8380   0.8930   0.9306   0.9460   0.9658
  0:      1.0176   1.0440   1.0499   1.0825   1.1811   1.2065   1.2156   1.2330
  0:      1.3207   1.3573   1.3591   1.3925   1.7731   1.7867   1.8044   1.8158
  0:      5.2237   5.2503   5.3073   5.3602   6.1208   6.1857   6.2309   6.2422
  0:      6.6395   6.6962   6.7295   6.7666   6.9186   6.9232   6.9544   6.9587
  0:      8.1206   8.1279   8.1529   8.1708   8.5479   8.5556   8.5610   8.5636
  0:      8.6661   8.6912   8.7428   8.7679   9.0239   9.0551   9.0882   9.1246
  0:      9.2957   9.3075   9.3184   9.3358   9.6802   9.6818   9.6870   9.6886
  0:      9.8414   9.8499   9.9438   9.9448  10.0465  10.0611  10.0722  10.0810
  0:     10.3225  10.3283  10.3886  10.3915  10.4793  10.4887  10.5049  10.5186
  0:     10.6665  10.6957  10.7995  10.8255  11.0076  11.0269  11.1026  11.1317
  0: 
  0:           k = 0.5530 0.4473 0.0000 ( 52606 PWs)   bands (ev):
  0: 
  0:    -17.1644 -17.1644 -17.1640 -17.1640 -15.0195 -15.0190 -15.0189 -15.0184
  0:    -14.9970 -14.9966 -14.9963 -14.9958 -13.2822 -13.2821 -13.2795 -13.2794
  0:    -12.5442 -12.5404 -12.5355 -12.5311 -12.5055 -12.4995 -12.4964 -12.4904
  0:    -12.4140 -12.4131 -12.4129 -12.4121 -11.9000 -11.9000 -11.8944 -11.8943
  0:    -11.4646 -11.4642 -11.4470 -11.4465 -11.1203 -11.1157 -11.1091 -11.1048
  0:    -11.0258 -11.0209 -11.0086 -11.0039  -9.4099  -9.4098  -9.4026  -9.4025
  0:     -7.8198  -7.8197  -7.8143  -7.8141  -6.5346  -6.5344  -6.5332  -6.5331
  0:     -6.2917  -6.2914  -6.2904  -6.2903  -4.8766  -4.8759  -4.8658  -4.8651
  0:     -4.7645  -4.7644  -4.7563  -4.7562  -3.5874  -3.5839  -3.5838  -3.5801
  0:     -2.8713  -2.8695  -2.8446  -2.8423  -2.7459  -2.7447  -2.7402  -2.7392
  0:     -2.1544  -2.1537  -2.1491  -2.1486  -1.5455  -1.5452  -1.5307  -1.5289
  0:     -1.3861  -1.3822  -1.3801  -1.3780  -0.4404  -0.4395  -0.3911  -0.3881
  0:     -0.2350  -0.2253  -0.2122  -0.1958   0.0008   0.0192   0.0352   0.0445
  0:      0.3292   0.3462   0.3678   0.3739   0.5842   0.5967   0.6298   0.6547
  0:      0.7774   0.7900   0.8075   0.8289   0.9017   0.9211   0.9527   0.9626
  0:      1.0229   1.0368   1.0586   1.0752   1.1894   1.2069   1.2126   1.2260
  0:      1.3293   1.3478   1.3671   1.3840   1.7826   1.7956   1.7984   1.8103
  0:      5.2432   5.2782   5.2851   5.3335   6.1483   6.1977   6.2037   6.2258
  0:      6.6522   6.6809   6.7365   6.7551   6.9265   6.9302   6.9447   6.9483
  0:      8.1263   8.1359   8.1425   8.1575   8.5530   8.5582   8.5596   8.5622
  0:      8.6832   8.7093   8.7218   8.7477   9.0451   9.0778   9.0790   9.1143
  0:      9.2987   9.3097   9.3118   9.3254   9.6830   9.6838   9.6862   9.6869
  0:      9.8686   9.8757   9.9211   9.9242  10.0455  10.0538  10.0696  10.0744
  0:     10.3385  10.3443  10.3738  10.3757  10.4824  10.4939  10.4965  10.5098
  0:     10.7003  10.7292  10.7684  10.7965  11.0334  11.0611  11.0845  11.1204
  0: 
  0:           k = 0.5530 0.4709 0.0000 ( 52604 PWs)   bands (ev):
  0: 
  0:    -17.1642 -17.1642 -17.1642 -17.1642 -15.0192 -15.0192 -15.0187 -15.0187
  0:    -14.9968 -14.9968 -14.9961 -14.9961 -13.2809 -13.2809 -13.2808 -13.2808
  0:    -12.5423 -12.5423 -12.5333 -12.5333 -12.5026 -12.5026 -12.4934 -12.4934
  0:    -12.4134 -12.4134 -12.4126 -12.4126 -11.8973 -11.8973 -11.8973 -11.8973
  0:    -11.4559 -11.4559 -11.4554 -11.4554 -11.1146 -11.1146 -11.1102 -11.1102
  0:    -11.0171 -11.0171 -11.0123 -11.0123  -9.4062  -9.4062  -9.4061  -9.4061
  0:     -7.8171  -7.8171  -7.8169  -7.8169  -6.5338  -6.5338  -6.5337  -6.5337
  0:     -6.2910  -6.2910  -6.2908  -6.2908  -4.8710  -4.8710  -4.8703  -4.8703
  0:     -4.7606  -4.7606  -4.7605  -4.7605  -3.5860  -3.5860  -3.5824  -3.5824
  0:     -2.8579  -2.8579  -2.8559  -2.8559  -2.7432  -2.7432  -2.7421  -2.7421
  0:     -2.1519  -2.1519  -2.1513  -2.1513  -1.5374  -1.5374  -1.5363  -1.5363
  0:     -1.3834  -1.3834  -1.3804  -1.3804  -0.4147  -0.4147  -0.4128  -0.4128
  0:     -0.2299  -0.2299  -0.2035  -0.2035   0.0081   0.0081   0.0381   0.0381
  0:      0.3377   0.3377   0.3710   0.3710   0.5902   0.5902   0.6424   0.6424
  0:      0.7840   0.7840   0.8186   0.8186   0.9113   0.9113   0.9582   0.9582
  0:      1.0295   1.0295   1.0671   1.0671   1.1981   1.1981   1.2192   1.2192
  0:      1.3385   1.3385   1.3755   1.3755   1.7911   1.7911   1.8035   1.8035
  0:      5.2637   5.2637   5.3061   5.3061   6.1760   6.1760   6.2110   6.2110
  0:      6.6661   6.6661   6.7451   6.7451   6.9353   6.9353   6.9387   6.9387
  0:      8.1336   8.1336   8.1459   8.1459   8.5569   8.5569   8.5604   8.5604
  0:      8.7019   8.7019   8.7281   8.7281   9.0633   9.0633   9.0990   9.0990
  0:      9.3032   9.3032   9.3175   9.3175   9.6852   9.6852   9.6852   9.6852
  0:      9.8955   9.8955   9.9007   9.9007  10.0484  10.0484  10.0704  10.0704
  0:     10.3557  10.3557  10.3604  10.3604  10.4887  10.4887  10.5014  10.5014
  0:     10.7348  10.7348  10.7634  10.7634  11.0604  11.0604  11.0940  11.0940
  0: 
  0:           k = 0.5254 0.4709 0.0000 ( 52592 PWs)   bands (ev):
  0: 
  0:    -17.1642 -17.1642 -17.1642 -17.1642 -15.0192 -15.0192 -15.0187 -15.0187
  0:    -14.9968 -14.9968 -14.9961 -14.9961 -13.2809 -13.2809 -13.2808 -13.2808
  0:    -12.5423 -12.5423 -12.5332 -12.5332 -12.5026 -12.5026 -12.4934 -12.4934
  0:    -12.4134 -12.4134 -12.4126 -12.4126 -11.8973 -11.8973 -11.8973 -11.8973
  0:    -11.4561 -11.4561 -11.4556 -11.4556 -11.1145 -11.1145 -11.1099 -11.1099
  0:    -11.0172 -11.0172 -11.0122 -11.0122  -9.4062  -9.4062  -9.4061  -9.4061
  0:     -7.8172  -7.8172  -7.8170  -7.8170  -6.5339  -6.5339  -6.5338  -6.5338
  0:     -6.2911  -6.2911  -6.2909  -6.2909  -4.8711  -4.8711  -4.8704  -4.8704
  0:     -4.7606  -4.7606  -4.7604  -4.7604  -3.5860  -3.5860  -3.5823  -3.5823
  0:     -2.8580  -2.8580  -2.8560  -2.8560  -2.7431  -2.7431  -2.7420  -2.7420
  0:     -2.1518  -2.1518  -2.1512  -2.1512  -1.5370  -1.5370  -1.5354  -1.5354
  0:     -1.3834  -1.3834  -1.3802  -1.3802  -0.4157  -0.4157  -0.4130  -0.4130
  0:     -0.2303  -0.2303  -0.2031  -0.2031   0.0064   0.0064   0.0375   0.0375
  0:      0.3389   0.3389   0.3745   0.3745   0.5902   0.5902   0.6430   0.6430
  0:      0.7834   0.7834   0.8191   0.8191   0.9086   0.9086   0.9604   0.9604
  0:      1.0293   1.0293   1.0673   1.0673   1.1970   1.1970   1.2197   1.2197
  0:      1.3383   1.3383   1.3752   1.3752   1.7909   1.7909   1.8033   1.8033
  0:      5.2618   5.2618   5.3074   5.3074   6.1725   6.1725   6.2136   6.2136
  0:      6.6643   6.6643   6.7463   6.7463   6.9319   6.9319   6.9390   6.9390
  0:      8.1287   8.1287   8.1421   8.1421   8.5541   8.5541   8.5648   8.5648
  0:      8.7036   8.7036   8.7305   8.7305   9.0678   9.0678   9.1032   9.1032
  0:      9.3022   9.3022   9.3165   9.3165   9.6838   9.6838   9.6884   9.6884
  0:      9.8918   9.8918   9.8984   9.8984  10.0518  10.0518  10.0737  10.0737
  0:     10.3517  10.3517  10.3610  10.3610  10.4900  10.4900  10.5035  10.5035
  0:     10.7361  10.7361  10.7657  10.7657  11.0597  11.0597  11.0932  11.0932
  0: 
  0:           k = 0.4977 0.4709 0.0000 ( 52584 PWs)   bands (ev):
  0: 
  0:    -17.1642 -17.1642 -17.1642 -17.1642 -15.0192 -15.0192 -15.0187 -15.0187
  0:    -14.9968 -14.9968 -14.9961 -14.9961 -13.2809 -13.2809 -13.2808 -13.2808
  0:    -12.5423 -12.5423 -12.5332 -12.5332 -12.5026 -12.5026 -12.4934 -12.4934
  0:    -12.4134 -12.4134 -12.4126 -12.4126 -11.8974 -11.8974 -11.8973 -11.8973
  0:    -11.4565 -11.4565 -11.4560 -11.4560 -11.1142 -11.1142 -11.1090 -11.1090
  0:    -11.0174 -11.0174 -11.0119 -11.0119  -9.4062  -9.4062  -9.4061  -9.4061
  0:     -7.8175  -7.8175  -7.8173  -7.8173  -6.5342  -6.5342  -6.5341  -6.5341
  0:     -6.2912  -6.2912  -6.2910  -6.2910  -4.8716  -4.8716  -4.8707  -4.8707
  0:     -4.7607  -4.7607  -4.7602  -4.7602  -3.5859  -3.5859  -3.5822  -3.5822
  0:     -2.8583  -2.8583  -2.8563  -2.8563  -2.7429  -2.7429  -2.7418  -2.7418
  0:     -2.1516  -2.1516  -2.1509  -2.1509  -1.5355  -1.5355  -1.5330  -1.5330
  0:     -1.3833  -1.3833  -1.3798  -1.3798  -0.4182  -0.4182  -0.4138  -0.4138
  0:     -0.2314  -0.2314  -0.2020  -0.2020   0.0015   0.0015   0.0354   0.0354
  0:      0.3428   0.3428   0.3844   0.3844   0.5906   0.5906   0.6448   0.6448
  0:      0.7820   0.7820   0.8205   0.8205   0.9018   0.9018   0.9657   0.9657
  0:      1.0286   1.0286   1.0678   1.0678   1.1942   1.1942   1.2208   1.2208
  0:      1.3378   1.3378   1.3742   1.3742   1.7901   1.7901   1.8027   1.8027
  0:      5.2568   5.2568   5.3105   5.3105   6.1639   6.1639   6.2193   6.2193
  0:      6.6592   6.6592   6.7492   6.7492   6.9245   6.9245   6.9371   6.9371
  0:      8.1151   8.1151   8.1311   8.1311   8.5513   8.5513   8.5708   8.5708
  0:      8.7093   8.7093   8.7380   8.7380   9.0805   9.0805   9.1150   9.1150
  0:      9.2994   9.2994   9.3141   9.3141   9.6842   9.6842   9.6930   9.6930
  0:      9.8824   9.8824   9.8911   9.8911  10.0614  10.0614  10.0827  10.0827
  0:     10.3431  10.3431  10.3593  10.3593  10.4941  10.4941  10.5095  10.5095
  0:     10.7407  10.7407  10.7720  10.7720  11.0574  11.0574  11.0905  11.0905
  0: 
  0:           k = 0.4701 0.4709 0.0000 ( 52588 PWs)   bands (ev):
  0: 
  0:    -17.1642 -17.1642 -17.1642 -17.1642 -15.0192 -15.0192 -15.0187 -15.0187
  0:    -14.9968 -14.9968 -14.9961 -14.9961 -13.2809 -13.2809 -13.2807 -13.2807
  0:    -12.5423 -12.5423 -12.5331 -12.5331 -12.5026 -12.5026 -12.4934 -12.4934
  0:    -12.4134 -12.4134 -12.4126 -12.4126 -11.8974 -11.8974 -11.8973 -11.8973
  0:    -11.4573 -11.4573 -11.4567 -11.4567 -11.1135 -11.1135 -11.1076 -11.1076
  0:    -11.0176 -11.0176 -11.0115 -11.0115  -9.4062  -9.4062  -9.4061  -9.4061
  0:     -7.8180  -7.8180  -7.8178  -7.8178  -6.5346  -6.5346  -6.5345  -6.5345
  0:     -6.2913  -6.2913  -6.2911  -6.2911  -4.8722  -4.8722  -4.8712  -4.8712
  0:     -4.7607  -4.7607  -4.7599  -4.7599  -3.5857  -3.5857  -3.5820  -3.5820
  0:     -2.8588  -2.8588  -2.8567  -2.8567  -2.7427  -2.7427  -2.7415  -2.7415
  0:     -2.1513  -2.1513  -2.1506  -2.1506  -1.5329  -1.5329  -1.5293  -1.5293
  0:     -1.3830  -1.3830  -1.3791  -1.3791  -0.4217  -0.4217  -0.4157  -0.4157
  0:     -0.2328  -0.2328  -0.2005  -0.2005  -0.0054  -0.0054   0.0317   0.0317
  0:      0.3498   0.3498   0.3991   0.3991   0.5913   0.5913   0.6476   0.6476
  0:      0.7801   0.7801   0.8223   0.8223   0.8930   0.8930   0.9718   0.9718
  0:      1.0277   1.0277   1.0687   1.0687   1.1900   1.1900   1.2222   1.2222
  0:      1.3371   1.3371   1.3727   1.3727   1.7889   1.7889   1.8016   1.8016
  0:      5.2499   5.2499   5.3143   5.3143   6.1530   6.1530   6.2256   6.2256
  0:      6.6519   6.6519   6.7526   6.7526   6.9147   6.9147   6.9325   6.9325
  0:      8.0951   8.0951   8.1135   8.1135   8.5486   8.5486   8.5754   8.5754
  0:      8.7201   8.7201   8.7511   8.7511   9.0986   9.0986   9.1321   9.1321
  0:      9.2962   9.2962   9.3130   9.3130   9.6862   9.6862   9.6985   9.6985
  0:      9.8696   9.8696   9.8797   9.8797  10.0761  10.0761  10.0958  10.0958
  0:     10.3315  10.3315  10.3541  10.3541  10.5010  10.5010  10.5183  10.5183
  0:     10.7489  10.7489  10.7818  10.7818  11.0525  11.0525  11.0841  11.0841
  0: 
  0:           k = 0.4424 0.4709 0.0000 ( 52594 PWs)   bands (ev):
  0: 
  0:    -17.1642 -17.1642 -17.1642 -17.1642 -15.0192 -15.0192 -15.0187 -15.0187
  0:    -14.9968 -14.9968 -14.9961 -14.9961 -13.2809 -13.2809 -13.2807 -13.2807
  0:    -12.5423 -12.5423 -12.5330 -12.5330 -12.5026 -12.5026 -12.4933 -12.4933
  0:    -12.4134 -12.4134 -12.4126 -12.4126 -11.8975 -11.8975 -11.8974 -11.8974
  0:    -11.4583 -11.4583 -11.4577 -11.4577 -11.1126 -11.1126 -11.1058 -11.1058
  0:    -11.0179 -11.0179 -11.0110 -11.0110  -9.4062  -9.4062  -9.4061  -9.4061
  0:     -7.8186  -7.8186  -7.8185  -7.8185  -6.5352  -6.5352  -6.5351  -6.5351
  0:     -6.2915  -6.2915  -6.2913  -6.2913  -4.8731  -4.8731  -4.8719  -4.8719
  0:     -4.7607  -4.7607  -4.7597  -4.7597  -3.5856  -3.5856  -3.5818  -3.5818
  0:     -2.8594  -2.8594  -2.8574  -2.8574  -2.7423  -2.7423  -2.7410  -2.7410
  0:     -2.1510  -2.1510  -2.1501  -2.1501  -1.5291  -1.5291  -1.5245  -1.5245
  0:     -1.3826  -1.3826  -1.3781  -1.3781  -0.4260  -0.4260  -0.4185  -0.4185
  0:     -0.2341  -0.2341  -0.1991  -0.1991  -0.0135  -0.0135   0.0263   0.0263
  0:      0.3597   0.3597   0.4170   0.4170   0.5929   0.5929   0.6509   0.6509
  0:      0.7780   0.7780   0.8243   0.8243   0.8836   0.8836   0.9771   0.9771
  0:      1.0267   1.0267   1.0701   1.0701   1.1851   1.1851   1.2233   1.2233
  0:      1.3364   1.3364   1.3709   1.3709   1.7873   1.7873   1.8002   1.8002
  0:      5.2417   5.2417   5.3178   5.3178   6.1410   6.1410   6.2313   6.2313
  0:      6.6432   6.6432   6.7548   6.7548   6.9035   6.9035   6.9255   6.9255
  0:      8.0710   8.0710   8.0909   8.0909   8.5449   8.5449   8.5775   8.5775
  0:      8.7363   8.7363   8.7701   8.7701   9.1176   9.1176   9.1506   9.1506
  0:      9.2951   9.2951   9.3172   9.3172   9.6892   9.6892   9.7040   9.7040
  0:      9.8550   9.8550   9.8660   9.8660  10.0942  10.0942  10.1112  10.1112
  0:     10.3179  10.3179  10.3454  10.3454  10.5100  10.5100  10.5296  10.5296
  0:     10.7609  10.7609  10.7940  10.7940  11.0442  11.0442  11.0729  11.0729
  0: 
  0:           k = 0.4148 0.4709 0.0000 ( 52606 PWs)   bands (ev):
  0: 
  0:    -17.1642 -17.1642 -17.1642 -17.1642 -15.0192 -15.0192 -15.0187 -15.0187
  0:    -14.9968 -14.9968 -14.9960 -14.9960 -13.2808 -13.2808 -13.2807 -13.2807
  0:    -12.5423 -12.5423 -12.5329 -12.5329 -12.5027 -12.5027 -12.4933 -12.4933
  0:    -12.4134 -12.4134 -12.4126 -12.4126 -11.8975 -11.8975 -11.8974 -11.8974
  0:    -11.4596 -11.4596 -11.4590 -11.4590 -11.1114 -11.1114 -11.1036 -11.1036
  0:    -11.0183 -11.0183 -11.0105 -11.0105  -9.4063  -9.4063  -9.4061  -9.4061
  0:     -7.8194  -7.8194  -7.8193  -7.8193  -6.5359  -6.5359  -6.5358  -6.5358
  0:     -6.2918  -6.2918  -6.2916  -6.2916  -4.8742  -4.8742  -4.8728  -4.8728
  0:     -4.7606  -4.7606  -4.7594  -4.7594  -3.5853  -3.5853  -3.5814  -3.5814
  0:     -2.8602  -2.8602  -2.8581  -2.8581  -2.7418  -2.7418  -2.7405  -2.7405
  0:     -2.1505  -2.1505  -2.1495  -2.1495  -1.5243  -1.5243  -1.5187  -1.5187
  0:     -1.3820  -1.3820  -1.3769  -1.3769  -0.4308  -0.4308  -0.4220  -0.4220
  0:     -0.2352  -0.2352  -0.1979  -0.1979  -0.0221  -0.0221   0.0194   0.0194
  0:      0.3718   0.3718   0.4366   0.4366   0.5956   0.5956   0.6544   0.6544
  0:      0.7763   0.7763   0.8261   0.8261   0.8746   0.8746   0.9805   0.9805
  0:      1.0257   1.0257   1.0719   1.0719   1.1799   1.1799   1.2240   1.2240
  0:      1.3357   1.3357   1.3694   1.3694   1.7852   1.7852   1.7986   1.7986
  0:      5.2328   5.2328   5.3205   5.3205   6.1285   6.1285   6.2357   6.2357
  0:      6.6338   6.6338   6.7543   6.7543   6.8922   6.8922   6.9168   6.9168
  0:      8.0445   8.0445   8.0652   8.0652   8.5401   8.5401   8.5771   8.5771
  0:      8.7570   8.7570   8.7940   8.7940   9.1320   9.1320   9.1652   9.1652
  0:      9.3007   9.3007   9.3307   9.3307   9.6923   9.6923   9.7087   9.7087
  0:      9.8405   9.8405   9.8521   9.8521  10.1139  10.1139  10.1275  10.1275
  0:     10.3036  10.3036  10.3338  10.3338  10.5198  10.5198  10.5428  10.5428
  0:     10.7756  10.7756  10.8070  10.8070  11.0323  11.0323  11.0579  11.0579
  0: 
  0:           k = 0.3871 0.4709 0.0000 ( 52622 PWs)   bands (ev):
  0: 
  0:    -17.1642 -17.1642 -17.1642 -17.1642 -15.0192 -15.0192 -15.0187 -15.0187
  0:    -14.9968 -14.9968 -14.9960 -14.9960 -13.2808 -13.2808 -13.2806 -13.2806
  0:    -12.5423 -12.5423 -12.5328 -12.5328 -12.5027 -12.5027 -12.4932 -12.4932
  0:    -12.4134 -12.4134 -12.4126 -12.4126 -11.8976 -11.8976 -11.8975 -11.8975
  0:    -11.4611 -11.4611 -11.4604 -11.4604 -11.1098 -11.1098 -11.1011 -11.1011
  0:    -11.0186 -11.0186 -11.0099 -11.0099  -9.4063  -9.4063  -9.4062  -9.4062
  0:     -7.8204  -7.8204  -7.8203  -7.8203  -6.5368  -6.5368  -6.5366  -6.5366
  0:     -6.2921  -6.2921  -6.2919  -6.2919  -4.8755  -4.8755  -4.8739  -4.8739
  0:     -4.7604  -4.7604  -4.7591  -4.7591  -3.5850  -3.5850  -3.5811  -3.5811
  0:     -2.8611  -2.8611  -2.8590  -2.8590  -2.7412  -2.7412  -2.7399  -2.7399
  0:     -2.1500  -2.1500  -2.1489  -2.1489  -1.5185  -1.5185  -1.5120  -1.5120
  0:     -1.3812  -1.3812  -1.3754  -1.3754  -0.4360  -0.4360  -0.4261  -0.4261
  0:     -0.2360  -0.2360  -0.1970  -0.1970  -0.0306  -0.0306   0.0116   0.0116
  0:      0.3854   0.3854   0.4566   0.4566   0.5999   0.5999   0.6575   0.6575
  0:      0.7751   0.7751   0.8272   0.8272   0.8665   0.8665   0.9816   0.9816
  0:      1.0246   1.0246   1.0742   1.0742   1.1746   1.1746   1.2241   1.2241
  0:      1.3351   1.3351   1.3684   1.3684   1.7827   1.7827   1.7966   1.7966
  0:      5.2236   5.2236   5.3219   5.3219   6.1159   6.1159   6.2386   6.2386
  0:      6.6242   6.6242   6.7497   6.7497   6.8818   6.8818   6.9072   6.9072
  0:      8.0171   8.0171   8.0378   8.0378   8.5348   8.5348   8.5753   8.5753
  0:      8.7808   8.7808   8.8214   8.8214   9.1377   9.1377   9.1715   9.1715
  0:      9.3181   9.3181   9.3548   9.3548   9.6946   9.6946   9.7112   9.7112
  0:      9.8279   9.8279   9.8398   9.8398  10.1323  10.1323  10.1441  10.1441
  0:     10.2906  10.2906  10.3206  10.3206  10.5292  10.5292  10.5572  10.5572
  0:     10.7909  10.7909  10.8192  10.8192  11.0183  11.0183  11.0422  11.0422
  0: 
  0:           k = 0.3595 0.4709 0.0000 ( 52610 PWs)   bands (ev):
  0: 
  0:    -17.1643 -17.1643 -17.1643 -17.1643 -15.0192 -15.0192 -15.0187 -15.0187
  0:    -14.9968 -14.9968 -14.9960 -14.9960 -13.2808 -13.2808 -13.2806 -13.2806
  0:    -12.5423 -12.5423 -12.5326 -12.5326 -12.5028 -12.5028 -12.4932 -12.4932
  0:    -12.4134 -12.4134 -12.4126 -12.4126 -11.8977 -11.8977 -11.8976 -11.8976
  0:    -11.4627 -11.4627 -11.4620 -11.4620 -11.1079 -11.1079 -11.0984 -11.0984
  0:    -11.0189 -11.0189 -11.0094 -11.0094  -9.4063  -9.4063  -9.4062  -9.4062
  0:     -7.8215  -7.8215  -7.8214  -7.8214  -6.5377  -6.5377  -6.5375  -6.5375
  0:     -6.2924  -6.2924  -6.2923  -6.2923  -4.8769  -4.8769  -4.8752  -4.8752
  0:     -4.7602  -4.7602  -4.7587  -4.7587  -3.5847  -3.5847  -3.5806  -3.5806
  0:     -2.8621  -2.8621  -2.8600  -2.8600  -2.7406  -2.7406  -2.7393  -2.7393
  0:     -2.1494  -2.1494  -2.1482  -2.1482  -1.5121  -1.5121  -1.5046  -1.5046
  0:     -1.3801  -1.3801  -1.3735  -1.3735  -0.4413  -0.4413  -0.4306  -0.4306
  0:     -0.2363  -0.2363  -0.1966  -0.1966  -0.0388  -0.0388   0.0032   0.0032
  0:      0.3997   0.3997   0.4754   0.4754   0.6061   0.6061   0.6601   0.6601
  0:      0.7746   0.7746   0.8275   0.8275   0.8604   0.8604   0.9805   0.9805
  0:      1.0231   1.0231   1.0768   1.0768   1.1697   1.1697   1.2239   1.2239
  0:      1.3348   1.3348   1.3685   1.3685   1.7798   1.7798   1.7946   1.7946
  0:      5.2141   5.2141   5.3217   5.3217   6.1036   6.1036   6.2398   6.2398
  0:      6.6145   6.6145   6.7403   6.7403   6.8729   6.8729   6.8982   6.8982
  0:      7.9898   7.9898   8.0100   8.0100   8.5300   8.5300   8.5728   8.5728
  0:      8.8062   8.8062   8.8506   8.8506   9.1355   9.1355   9.1693   9.1693
  0:      9.3465   9.3465   9.3872   9.3872   9.6949   9.6949   9.7106   9.7106
  0:      9.8194   9.8194   9.8308   9.8308  10.1448  10.1448  10.1618  10.1618
  0:     10.2815  10.2815  10.3080  10.3080  10.5366  10.5366  10.5707  10.5707
  0:     10.8040  10.8040  10.8289  10.8289  11.0049  11.0049  11.0301  11.0301
  0: 
  0:           k = 0.3318 0.4709 0.0000 ( 52616 PWs)   bands (ev):
  0: 
  0:    -17.1643 -17.1643 -17.1643 -17.1643 -15.0192 -15.0192 -15.0187 -15.0187
  0:    -14.9968 -14.9968 -14.9960 -14.9960 -13.2808 -13.2808 -13.2806 -13.2806
  0:    -12.5423 -12.5423 -12.5325 -12.5325 -12.5028 -12.5028 -12.4931 -12.4931
  0:    -12.4134 -12.4134 -12.4126 -12.4126 -11.8978 -11.8978 -11.8976 -11.8976
  0:    -11.4644 -11.4644 -11.4637 -11.4637 -11.1059 -11.1059 -11.0955 -11.0955
  0:    -11.0193 -11.0193 -11.0089 -11.0089  -9.4063  -9.4063  -9.4062  -9.4062
  0:     -7.8227  -7.8227  -7.8225  -7.8225  -6.5387  -6.5387  -6.5385  -6.5385
  0:     -6.2928  -6.2928  -6.2926  -6.2926  -4.8785  -4.8785  -4.8767  -4.8767
  0:     -4.7599  -4.7599  -4.7584  -4.7584  -3.5844  -3.5844  -3.5802  -3.5802
  0:     -2.8631  -2.8631  -2.8610  -2.8610  -2.7399  -2.7399  -2.7386  -2.7386
  0:     -2.1488  -2.1488  -2.1476  -2.1476  -1.5051  -1.5051  -1.4968  -1.4968
  0:     -1.3786  -1.3786  -1.3714  -1.3714  -0.4464  -0.4464  -0.4352  -0.4352
  0:     -0.2364  -0.2364  -0.1966  -0.1966  -0.0464  -0.0464  -0.0054  -0.0054
  0:      0.4140   0.4140   0.4919   0.4919   0.6140   0.6140   0.6621   0.6621
  0:      0.7747   0.7747   0.8268   0.8268   0.8569   0.8569   0.9774   0.9774
  0:      1.0209   1.0209   1.0788   1.0788   1.1656   1.1656   1.2232   1.2232
  0:      1.3347   1.3347   1.3700   1.3700   1.7766   1.7766   1.7925   1.7925
  0:      5.2047   5.2047   5.3197   5.3197   6.0920   6.0920   6.2391   6.2391
  0:      6.6050   6.6050   6.7264   6.7264   6.8649   6.8649   6.8911   6.8911
  0:      7.9633   7.9633   7.9826   7.9826   8.5263   8.5263   8.5707   8.5707
  0:      8.8318   8.8318   8.8797   8.8797   9.1285   9.1285   9.1621   9.1621
  0:      9.3805   9.3805   9.4233   9.4233   9.6922   9.6922   9.7070   9.7070
  0:      9.8165   9.8165   9.8264   9.8264  10.1489  10.1489  10.1785  10.1785
  0:     10.2786  10.2786  10.2997  10.2997  10.5400  10.5400  10.5804  10.5804
  0:     10.8130  10.8130  10.8358  10.8358  10.9953  10.9953  11.0239  11.0239
  0: 
  0:           k = 0.3042 0.4709 0.0000 ( 52626 PWs)   bands (ev):
  0: 
  0:    -17.1643 -17.1643 -17.1643 -17.1643 -15.0192 -15.0192 -15.0187 -15.0187
  0:    -14.9968 -14.9968 -14.9960 -14.9960 -13.2807 -13.2807 -13.2805 -13.2805
  0:    -12.5423 -12.5423 -12.5323 -12.5323 -12.5029 -12.5029 -12.4931 -12.4931
  0:    -12.4134 -12.4134 -12.4126 -12.4126 -11.8979 -11.8979 -11.8977 -11.8977
  0:    -11.4662 -11.4662 -11.4655 -11.4655 -11.1036 -11.1036 -11.0925 -11.0925
  0:    -11.0196 -11.0196 -11.0085 -11.0085  -9.4064  -9.4064  -9.4062  -9.4062
  0:     -7.8239  -7.8239  -7.8238  -7.8238  -6.5398  -6.5398  -6.5396  -6.5396
  0:     -6.2932  -6.2932  -6.2930  -6.2930  -4.8801  -4.8801  -4.8783  -4.8783
  0:     -4.7596  -4.7596  -4.7580  -4.7580  -3.5840  -3.5840  -3.5797  -3.5797
  0:     -2.8641  -2.8641  -2.8621  -2.8621  -2.7392  -2.7392  -2.7379  -2.7379
  0:     -2.1483  -2.1483  -2.1470  -2.1470  -1.4977  -1.4977  -1.4888  -1.4888
  0:     -1.3768  -1.3768  -1.3688  -1.3688  -0.4512  -0.4512  -0.4397  -0.4397
  0:     -0.2363  -0.2363  -0.1969  -0.1969  -0.0534  -0.0534  -0.0139  -0.0139
  0:      0.4280   0.4280   0.5053   0.5053   0.6225   0.6225   0.6641   0.6641
  0:      0.7750   0.7750   0.8256   0.8256   0.8559   0.8559   0.9729   0.9729
  0:      1.0181   1.0181   1.0797   1.0797   1.1628   1.1628   1.2223   1.2223
  0:      1.3354   1.3354   1.3730   1.3730   1.7732   1.7732   1.7904   1.7904
  0:      5.1953   5.1953   5.3158   5.3158   6.0812   6.0812   6.2363   6.2363
  0:      6.5958   6.5958   6.7091   6.7091   6.8572   6.8572   6.8867   6.8867
  0:      7.9380   7.9380   7.9562   7.9562   8.5245   8.5245   8.5695   8.5695
  0:      8.8563   8.8563   8.9070   8.9070   9.1199   9.1199   9.1536   9.1536
  0:      9.4147   9.4147   9.4588   9.4588   9.6862   9.6862   9.7022   9.7022
  0:      9.8198   9.8198   9.8277   9.8277  10.1457  10.1457  10.1891  10.1891
  0:     10.2821  10.2821  10.3013  10.3013  10.5377  10.5377  10.5829  10.5829
  0:     10.8188  10.8188  10.8407  10.8407  10.9915  10.9915  11.0233  11.0233
  0: 
  0:           k = 0.2765 0.4709 0.0000 ( 52626 PWs)   bands (ev):
  0: 
  0:    -17.1643 -17.1643 -17.1643 -17.1643 -15.0192 -15.0192 -15.0187 -15.0187
  0:    -14.9968 -14.9968 -14.9960 -14.9960 -13.2807 -13.2807 -13.2805 -13.2805
  0:    -12.5422 -12.5422 -12.5321 -12.5321 -12.5030 -12.5030 -12.4930 -12.4930
  0:    -12.4134 -12.4134 -12.4126 -12.4126 -11.8981 -11.8981 -11.8978 -11.8978
  0:    -11.4680 -11.4680 -11.4673 -11.4673 -11.1012 -11.1012 -11.0894 -11.0894
  0:    -11.0200 -11.0200 -11.0082 -11.0082  -9.4064  -9.4064  -9.4063  -9.4063
  0:     -7.8252  -7.8252  -7.8250  -7.8250  -6.5409  -6.5409  -6.5406  -6.5406
  0:     -6.2936  -6.2936  -6.2934  -6.2934  -4.8817  -4.8817  -4.8799  -4.8799
  0:     -4.7592  -4.7592  -4.7576  -4.7576  -3.5836  -3.5836  -3.5792  -3.5792
  0:     -2.8651  -2.8651  -2.8632  -2.8632  -2.7385  -2.7385  -2.7373  -2.7373
  0:     -2.1477  -2.1477  -2.1465  -2.1465  -1.4903  -1.4903  -1.4809  -1.4809
  0:     -1.3745  -1.3745  -1.3659  -1.3659  -0.4555  -0.4555  -0.4439  -0.4439
  0:     -0.2360  -0.2360  -0.1976  -0.1976  -0.0596  -0.0596  -0.0222  -0.0222
  0:      0.4412   0.4412   0.5157   0.5157   0.6286   0.6286   0.6677   0.6677
  0:      0.7757   0.7757   0.8250   0.8250   0.8568   0.8568   0.9675   0.9675
  0:      1.0149   1.0149   1.0789   1.0789   1.1615   1.1615   1.2212   1.2212
  0:      1.3371   1.3371   1.3773   1.3773   1.7695   1.7695   1.7883   1.7883
  0:      5.1863   5.1863   5.3099   5.3099   6.0717   6.0717   6.2314   6.2314
  0:      6.5870   6.5870   6.6899   6.6899   6.8498   6.8498   6.8846   6.8846
  0:      7.9143   7.9143   7.9313   7.9313   8.5248   8.5248   8.5696   8.5696
  0:      8.8784   8.8784   8.9307   8.9307   9.1124   9.1124   9.1461   9.1461
  0:      9.4446   9.4446   9.4892   9.4892   9.6785   9.6785   9.6979   9.6979
  0:      9.8286   9.8286   9.8355   9.8355  10.1378  10.1378  10.1903  10.1903
  0:     10.2929  10.2929  10.3138  10.3138  10.5287  10.5287  10.5761  10.5761
  0:     10.8238  10.8238  10.8452  10.8452  10.9923  10.9923  11.0266  11.0266
  0: 
  0:           k = 0.2489 0.4709 0.0000 ( 52622 PWs)   bands (ev):
  0: 
  0:    -17.1643 -17.1643 -17.1643 -17.1643 -15.0192 -15.0192 -15.0187 -15.0187
  0:    -14.9968 -14.9968 -14.9960 -14.9960 -13.2807 -13.2807 -13.2804 -13.2804
  0:    -12.5422 -12.5422 -12.5320 -12.5320 -12.5030 -12.5030 -12.4930 -12.4930
  0:    -12.4134 -12.4134 -12.4126 -12.4126 -11.8982 -11.8982 -11.8979 -11.8979
  0:    -11.4698 -11.4698 -11.4691 -11.4691 -11.0986 -11.0986 -11.0864 -11.0864
  0:    -11.0203 -11.0203 -11.0080 -11.0080  -9.4064  -9.4064  -9.4063  -9.4063
  0:     -7.8264  -7.8264  -7.8263  -7.8263  -6.5419  -6.5419  -6.5417  -6.5417
  0:     -6.2940  -6.2940  -6.2938  -6.2938  -4.8834  -4.8834  -4.8816  -4.8816
  0:     -4.7589  -4.7589  -4.7573  -4.7573  -3.5833  -3.5833  -3.5787  -3.5787
  0:     -2.8661  -2.8661  -2.8642  -2.8642  -2.7378  -2.7378  -2.7366  -2.7366
  0:     -2.1473  -2.1473  -2.1460  -2.1460  -1.4831  -1.4831  -1.4734  -1.4734
  0:     -1.3718  -1.3718  -1.3625  -1.3625  -0.4592  -0.4592  -0.4478  -0.4478
  0:     -0.2355  -0.2355  -0.1987  -0.1987  -0.0651  -0.0651  -0.0300  -0.0300
  0:      0.4535   0.4535   0.5237   0.5237   0.6300   0.6300   0.6734   0.6734
  0:      0.7771   0.7771   0.8257   0.8257   0.8588   0.8588   0.9616   0.9616
  0:      1.0113   1.0113   1.0763   1.0763   1.1612   1.1612   1.2199   1.2199
  0:      1.3403   1.3403   1.3827   1.3827   1.7656   1.7656   1.7864   1.7864
  0:      5.1778   5.1778   5.3022   5.3022   6.0636   6.0636   6.2244   6.2244
  0:      6.5788   6.5788   6.6702   6.6702   6.8434   6.8434   6.8837   6.8837
  0:      7.8923   7.8923   7.9081   7.9081   8.5276   8.5276   8.5713   8.5713
  0:      8.8967   8.8967   8.9482   8.9482   9.1090   9.1090   9.1416   9.1416
  0:      9.4673   9.4673   9.5107   9.5107   9.6719   9.6719   9.6946   9.6946
  0:      9.8418   9.8418   9.8508   9.8508  10.1279  10.1279  10.1838  10.1838
  0:     10.3111  10.3111  10.3334  10.3334  10.5139  10.5139  10.5603  10.5603
  0:     10.8292  10.8292  10.8507  10.8507  10.9946  10.9946  11.0323  11.0323
  0: 
  0:           k = 0.2212 0.4709 0.0000 ( 52596 PWs)   bands (ev):
  0: 
  0:    -17.1644 -17.1644 -17.1644 -17.1644 -15.0192 -15.0192 -15.0187 -15.0187
  0:    -14.9968 -14.9968 -14.9960 -14.9960 -13.2806 -13.2806 -13.2804 -13.2804
  0:    -12.5422 -12.5422 -12.5318 -12.5318 -12.5031 -12.5031 -12.4929 -12.4929
  0:    -12.4134 -12.4134 -12.4126 -12.4126 -11.8983 -11.8983 -11.8980 -11.8980
  0:    -11.4715 -11.4715 -11.4708 -11.4708 -11.0961 -11.0961 -11.0835 -11.0835
  0:    -11.0206 -11.0206 -11.0080 -11.0080  -9.4064  -9.4064  -9.4063  -9.4063
  0:     -7.8277  -7.8277  -7.8275  -7.8275  -6.5429  -6.5429  -6.5428  -6.5428
  0:     -6.2944  -6.2944  -6.2942  -6.2942  -4.8850  -4.8850  -4.8833  -4.8833
  0:     -4.7584  -4.7584  -4.7569  -4.7569  -3.5829  -3.5829  -3.5782  -3.5782
  0:     -2.8671  -2.8671  -2.8653  -2.8653  -2.7371  -2.7371  -2.7360  -2.7360
  0:     -2.1468  -2.1468  -2.1456  -2.1456  -1.4762  -1.4762  -1.4666  -1.4666
  0:     -1.3686  -1.3686  -1.3589  -1.3589  -0.4623  -0.4623  -0.4513  -0.4513
  0:     -0.2350  -0.2350  -0.2000  -0.2000  -0.0698  -0.0698  -0.0374  -0.0374
  0:      0.4650   0.4650   0.5299   0.5299   0.6270   0.6270   0.6791   0.6791
  0:      0.7803   0.7803   0.8275   0.8275   0.8612   0.8612   0.9562   0.9562
  0:      1.0076   1.0076   1.0723   1.0723   1.1617   1.1617   1.2183   1.2183
  0:      1.3454   1.3454   1.3887   1.3887   1.7617   1.7617   1.7847   1.7847
  0:      5.1700   5.1700   5.2929   5.2929   6.0571   6.0571   6.2156   6.2156
  0:      6.5712   6.5712   6.6510   6.6510   6.8387   6.8387   6.8831   6.8831
  0:      7.8723   7.8723   7.8868   7.8868   8.5329   8.5329   8.5746   8.5746
  0:      8.9097   8.9097   8.9577   8.9577   9.1119   9.1119   9.1413   9.1413
  0:      9.4813   9.4813   9.5214   9.5214   9.6681   9.6681   9.6923   9.6923
  0:      9.8593   9.8593   9.8728   9.8728  10.1176  10.1176  10.1737  10.1737
  0:     10.3328  10.3328  10.3573  10.3573  10.4960  10.4960  10.5382  10.5382
  0:     10.8342  10.8342  10.8569  10.8569  10.9957  10.9957  11.0394  11.0394
  0: 
  0:           k = 0.1936 0.4709 0.0000 ( 52608 PWs)   bands (ev):
  0: 
  0:    -17.1644 -17.1644 -17.1644 -17.1644 -15.0192 -15.0192 -15.0187 -15.0187
  0:    -14.9968 -14.9968 -14.9960 -14.9960 -13.2806 -13.2806 -13.2804 -13.2804
  0:    -12.5422 -12.5422 -12.5317 -12.5317 -12.5031 -12.5031 -12.4929 -12.4929
  0:    -12.4134 -12.4134 -12.4126 -12.4126 -11.8984 -11.8984 -11.8981 -11.8981
  0:    -11.4731 -11.4731 -11.4724 -11.4724 -11.0936 -11.0936 -11.0807 -11.0807
  0:    -11.0209 -11.0209 -11.0080 -11.0080  -9.4065  -9.4065  -9.4064  -9.4064
  0:     -7.8288  -7.8288  -7.8287  -7.8287  -6.5439  -6.5439  -6.5437  -6.5437
  0:     -6.2948  -6.2948  -6.2946  -6.2946  -4.8865  -4.8865  -4.8850  -4.8850
  0:     -4.7580  -4.7580  -4.7566  -4.7566  -3.5825  -3.5825  -3.5777  -3.5777
  0:     -2.8679  -2.8679  -2.8662  -2.8662  -2.7365  -2.7365  -2.7355  -2.7355
  0:     -2.1465  -2.1465  -2.1453  -2.1453  -1.4699  -1.4699  -1.4605  -1.4605
  0:     -1.3650  -1.3650  -1.3549  -1.3549  -0.4647  -0.4647  -0.4544  -0.4544
  0:     -0.2344  -0.2344  -0.2015  -0.2015  -0.0737  -0.0737  -0.0442  -0.0442
  0:      0.4755   0.4755   0.5349   0.5349   0.6213   0.6213   0.6822   0.6822
  0:      0.7857   0.7857   0.8302   0.8302   0.8633   0.8633   0.9519   0.9519
  0:      1.0039   1.0039   1.0675   1.0675   1.1624   1.1624   1.2163   1.2163
  0:      1.3522   1.3522   1.3951   1.3951   1.7579   1.7579   1.7831   1.7831
  0:      5.1630   5.1630   5.2822   5.2822   6.0523   6.0523   6.2052   6.2052
  0:      6.5643   6.5643   6.6329   6.6329   6.8358   6.8358   6.8823   6.8823
  0:      7.8543   7.8543   7.8675   7.8675   8.5405   8.5405   8.5795   8.5795
  0:      8.9165   8.9165   8.9588   8.9588   9.1216   9.1216   9.1460   9.1460
  0:      9.4873   9.4873   9.5225   9.5225   9.6669   9.6669   9.6908   9.6908
  0:      9.8799   9.8799   9.8993   9.8993  10.1079  10.1079  10.1626  10.1626
  0:     10.3539  10.3539  10.3829  10.3829  10.4795  10.4795  10.5144  10.5144
  0:     10.8376  10.8376  10.8621  10.8621  10.9945  10.9945  11.0462  11.0462
  0: 
  0:           k = 0.1659 0.4709 0.0000 ( 52602 PWs)   bands (ev):
  0: 
  0:    -17.1644 -17.1644 -17.1644 -17.1644 -15.0192 -15.0192 -15.0187 -15.0187
  0:    -14.9968 -14.9968 -14.9960 -14.9960 -13.2806 -13.2806 -13.2803 -13.2803
  0:    -12.5421 -12.5421 -12.5315 -12.5315 -12.5032 -12.5032 -12.4928 -12.4928
  0:    -12.4134 -12.4134 -12.4126 -12.4126 -11.8985 -11.8985 -11.8982 -11.8982
  0:    -11.4746 -11.4746 -11.4739 -11.4739 -11.0912 -11.0912 -11.0782 -11.0782
  0:    -11.0212 -11.0212 -11.0081 -11.0081  -9.4065  -9.4065  -9.4064  -9.4064
  0:     -7.8299  -7.8299  -7.8298  -7.8298  -6.5448  -6.5448  -6.5446  -6.5446
  0:     -6.2951  -6.2951  -6.2950  -6.2950  -4.8879  -4.8879  -4.8865  -4.8865
  0:     -4.7576  -4.7576  -4.7563  -4.7563  -3.5822  -3.5822  -3.5773  -3.5773
  0:     -2.8687  -2.8687  -2.8671  -2.8671  -2.7360  -2.7360  -2.7350  -2.7350
  0:     -2.1461  -2.1461  -2.1451  -2.1451  -1.4643  -1.4643  -1.4554  -1.4554
  0:     -1.3612  -1.3612  -1.3509  -1.3509  -0.4664  -0.4664  -0.4569  -0.4569
  0:     -0.2336  -0.2336  -0.2033  -0.2033  -0.0767  -0.0767  -0.0506  -0.0506
  0:      0.4853   0.4853   0.5392   0.5392   0.6138   0.6138   0.6821   0.6821
  0:      0.7928   0.7928   0.8334   0.8334   0.8644   0.8644   0.9495   0.9495
  0:      1.0002   1.0002   1.0625   1.0625   1.1633   1.1633   1.2138   1.2138
  0:      1.3604   1.3604   1.4013   1.4013   1.7543   1.7543   1.7816   1.7816
  0:      5.1571   5.1571   5.2708   5.2708   6.0492   6.0492   6.1938   6.1938
  0:      6.5583   6.5583   6.6166   6.6166   6.8349   6.8349   6.8810   6.8810
  0:      7.8385   7.8385   7.8503   7.8503   8.5501   8.5501   8.5859   8.5859
  0:      8.9173   8.9173   8.9536   8.9536   9.1362   9.1362   9.1555   9.1555
  0:      9.4869   9.4869   9.5174   9.5174   9.6663   9.6663   9.6899   9.6899
  0:      9.9018   9.9018   9.9276   9.9276  10.0990  10.0990  10.1518  10.1518
  0:     10.3687  10.3687  10.4057  10.4057  10.4712  10.4712  10.4959  10.4959
  0:     10.8386  10.8386  10.8645  10.8645  10.9919  10.9919  11.0504  11.0504
  0: 
  0:           k = 0.1383 0.4709 0.0000 ( 52580 PWs)   bands (ev):
  0: 
  0:    -17.1644 -17.1644 -17.1644 -17.1644 -15.0192 -15.0192 -15.0187 -15.0187
  0:    -14.9968 -14.9968 -14.9960 -14.9960 -13.2805 -13.2805 -13.2803 -13.2803
  0:    -12.5421 -12.5421 -12.5314 -12.5314 -12.5032 -12.5032 -12.4928 -12.4928
  0:    -12.4134 -12.4134 -12.4126 -12.4126 -11.8986 -11.8986 -11.8983 -11.8983
  0:    -11.4758 -11.4758 -11.4752 -11.4752 -11.0889 -11.0889 -11.0760 -11.0760
  0:    -11.0214 -11.0214 -11.0083 -11.0083  -9.4065  -9.4065  -9.4064  -9.4064
  0:     -7.8309  -7.8309  -7.8308  -7.8308  -6.5456  -6.5456  -6.5454  -6.5454
  0:     -6.2954  -6.2954  -6.2953  -6.2953  -4.8892  -4.8892  -4.8880  -4.8880
  0:     -4.7572  -4.7572  -4.7561  -4.7561  -3.5819  -3.5819  -3.5769  -3.5769
  0:     -2.8694  -2.8694  -2.8678  -2.8678  -2.7354  -2.7354  -2.7346  -2.7346
  0:     -2.1459  -2.1459  -2.1449  -2.1449  -1.4595  -1.4595  -1.4514  -1.4514
  0:     -1.3572  -1.3572  -1.3469  -1.3469  -0.4677  -0.4677  -0.4591  -0.4591
  0:     -0.2326  -0.2326  -0.2052  -0.2052  -0.0789  -0.0789  -0.0563  -0.0563
  0:      0.4944   0.4944   0.5430   0.5430   0.6053   0.6053   0.6796   0.6796
  0:      0.8004   0.8004   0.8368   0.8368   0.8645   0.8645   0.9494   0.9494
  0:      0.9964   0.9964   1.0576   1.0576   1.1642   1.1642   1.2109   1.2109
  0:      1.3693   1.3693   1.4070   1.4070   1.7510   1.7510   1.7804   1.7804
  0:      5.1523   5.1523   5.2591   5.2591   6.0478   6.0478   6.1819   6.1819
  0:      6.5531   6.5531   6.6025   6.6025   6.8358   6.8358   6.8789   6.8789
  0:      7.8250   7.8250   7.8353   7.8353   8.5611   8.5611   8.5932   8.5932
  0:      8.9132   8.9132   8.9445   8.9445   9.1530   9.1530   9.1683   9.1683
  0:      9.4821   9.4821   9.5094   9.5094   9.6652   9.6652   9.6893   9.6893
  0:      9.9229   9.9229   9.9547   9.9547  10.0910  10.0910  10.1417  10.1417
  0:     10.3726  10.3726  10.4136  10.4136  10.4787  10.4787  10.4943  10.4943
  0:     10.8363  10.8363  10.8627  10.8627  10.9891  10.9891  11.0503  11.0503
  0: 
  0:           k = 0.1106 0.4709 0.0000 ( 52574 PWs)   bands (ev):
  0: 
  0:    -17.1644 -17.1644 -17.1644 -17.1644 -15.0192 -15.0192 -15.0187 -15.0187
  0:    -14.9968 -14.9968 -14.9960 -14.9960 -13.2805 -13.2805 -13.2803 -13.2803
  0:    -12.5421 -12.5421 -12.5313 -12.5313 -12.5033 -12.5033 -12.4928 -12.4928
  0:    -12.4134 -12.4134 -12.4126 -12.4126 -11.8987 -11.8987 -11.8984 -11.8984
  0:    -11.4769 -11.4769 -11.4764 -11.4764 -11.0870 -11.0870 -11.0742 -11.0742
  0:    -11.0216 -11.0216 -11.0085 -11.0085  -9.4065  -9.4065  -9.4064  -9.4064
  0:     -7.8317  -7.8317  -7.8316  -7.8316  -6.5463  -6.5463  -6.5461  -6.5461
  0:     -6.2957  -6.2957  -6.2956  -6.2956  -4.8902  -4.8902  -4.8892  -4.8892
  0:     -4.7569  -4.7569  -4.7559  -4.7559  -3.5816  -3.5816  -3.5765  -3.5765
  0:     -2.8699  -2.8699  -2.8685  -2.8685  -2.7350  -2.7350  -2.7342  -2.7342
  0:     -2.1456  -2.1456  -2.1449  -2.1449  -1.4556  -1.4556  -1.4482  -1.4482
  0:     -1.3535  -1.3535  -1.3432  -1.3432  -0.4684  -0.4684  -0.4608  -0.4608
  0:     -0.2315  -0.2315  -0.2072  -0.2072  -0.0802  -0.0802  -0.0616  -0.0616
  0:      0.5029   0.5029   0.5465   0.5465   0.5963   0.5963   0.6759   0.6759
  0:      0.8074   0.8074   0.8392   0.8392   0.8640   0.8640   0.9517   0.9517
  0:      0.9925   0.9925   1.0533   1.0533   1.1653   1.1653   1.2078   1.2078
  0:      1.3783   1.3783   1.4120   1.4120   1.7481   1.7481   1.7793   1.7793
  0:      5.1488   5.1488   5.2479   5.2479   6.0477   6.0477   6.1703   6.1703
  0:      6.5489   6.5489   6.5907   6.5907   6.8382   6.8382   6.8761   6.8761
  0:      7.8138   7.8138   7.8228   7.8228   8.5727   8.5727   8.6009   8.6009
  0:      8.9061   8.9061   8.9339   8.9339   9.1699   9.1699   9.1824   9.1824
  0:      9.4752   9.4752   9.5006   9.5006   9.6638   9.6638   9.6888   9.6888
  0:      9.9416   9.9416   9.9780   9.9780  10.0838  10.0838  10.1321  10.1321
  0:     10.3684  10.3684  10.4041  10.4041  10.5006  10.5006  10.5122  10.5122
  0:     10.8306  10.8306  10.8560  10.8560  10.9878  10.9878  11.0457  11.0457
  0: 
  0:           k = 0.0830 0.4709 0.0000 ( 52554 PWs)   bands (ev):
  0: 
  0:    -17.1644 -17.1644 -17.1644 -17.1644 -15.0192 -15.0192 -15.0187 -15.0187
  0:    -14.9968 -14.9968 -14.9960 -14.9960 -13.2805 -13.2805 -13.2803 -13.2803
  0:    -12.5421 -12.5421 -12.5312 -12.5312 -12.5033 -12.5033 -12.4927 -12.4927
  0:    -12.4134 -12.4134 -12.4126 -12.4126 -11.8988 -11.8988 -11.8985 -11.8985
  0:    -11.4778 -11.4778 -11.4773 -11.4773 -11.0853 -11.0853 -11.0727 -11.0727
  0:    -11.0217 -11.0217 -11.0088 -11.0088  -9.4065  -9.4065  -9.4065  -9.4065
  0:     -7.8324  -7.8324  -7.8323  -7.8323  -6.5468  -6.5468  -6.5467  -6.5467
  0:     -6.2959  -6.2959  -6.2958  -6.2958  -4.8911  -4.8911  -4.8902  -4.8902
  0:     -4.7566  -4.7566  -4.7558  -4.7558  -3.5814  -3.5814  -3.5763  -3.5763
  0:     -2.8704  -2.8704  -2.8690  -2.8690  -2.7347  -2.7347  -2.7340  -2.7340
  0:     -2.1455  -2.1455  -2.1448  -2.1448  -1.4524  -1.4524  -1.4460  -1.4460
  0:     -1.3502  -1.3502  -1.3401  -1.3401  -0.4688  -0.4688  -0.4622  -0.4622
  0:     -0.2302  -0.2302  -0.2092  -0.2092  -0.0807  -0.0807  -0.0663  -0.0663
  0:      0.5107   0.5107   0.5498   0.5498   0.5871   0.5871   0.6721   0.6721
  0:      0.8135   0.8135   0.8396   0.8396   0.8642   0.8642   0.9555   0.9555
  0:      0.9886   0.9886   1.0496   1.0496   1.1665   1.1665   1.2046   1.2046
  0:      1.3864   1.3864   1.4159   1.4159   1.7457   1.7457   1.7784   1.7784
  0:      5.1464   5.1464   5.2379   5.2379   6.0487   6.0487   6.1597   6.1597
  0:      6.5456   6.5456   6.5814   6.5814   6.8417   6.8417   6.8726   6.8726
  0:      7.8052   7.8052   7.8127   7.8127   8.5838   8.5838   8.6083   8.6083
  0:      8.8980   8.8980   8.9234   8.9234   9.1853   9.1853   9.1958   9.1958
  0:      9.4683   9.4683   9.4920   9.4920   9.6625   9.6625   9.6881   9.6881
  0:      9.9572   9.9572   9.9957   9.9957  10.0778  10.0778  10.1231  10.1231
  0:     10.3629  10.3629  10.3902  10.3902  10.5268  10.5268  10.5381  10.5381
  0:     10.8221  10.8221  10.8451  10.8451  10.9889  10.9889  11.0374  11.0374
  0: 
  0:           k = 0.0553 0.4709 0.0000 ( 52564 PWs)   bands (ev):
  0: 
  0:    -17.1644 -17.1644 -17.1644 -17.1644 -15.0192 -15.0192 -15.0187 -15.0187
  0:    -14.9968 -14.9968 -14.9960 -14.9960 -13.2805 -13.2805 -13.2803 -13.2803
  0:    -12.5420 -12.5420 -12.5311 -12.5311 -12.5033 -12.5033 -12.4927 -12.4927
  0:    -12.4134 -12.4134 -12.4126 -12.4126 -11.8989 -11.8989 -11.8985 -11.8985
  0:    -11.4784 -11.4784 -11.4779 -11.4779 -11.0841 -11.0841 -11.0717 -11.0717
  0:    -11.0218 -11.0218 -11.0090 -11.0090  -9.4065  -9.4065  -9.4065  -9.4065
  0:     -7.8328  -7.8328  -7.8327  -7.8327  -6.5472  -6.5472  -6.5471  -6.5471
  0:     -6.2960  -6.2960  -6.2959  -6.2959  -4.8917  -4.8917  -4.8910  -4.8910
  0:     -4.7564  -4.7564  -4.7557  -4.7557  -3.5812  -3.5812  -3.5761  -3.5761
  0:     -2.8707  -2.8707  -2.8693  -2.8693  -2.7344  -2.7344  -2.7338  -2.7338
  0:     -2.1453  -2.1453  -2.1448  -2.1448  -1.4502  -1.4502  -1.4446  -1.4446
  0:     -1.3476  -1.3476  -1.3377  -1.3377  -0.4689  -0.4689  -0.4632  -0.4632
  0:     -0.2289  -0.2289  -0.2111  -0.2111  -0.0803  -0.0803  -0.0703  -0.0703
  0:      0.5174   0.5174   0.5529   0.5529   0.5784   0.5784   0.6687   0.6687
  0:      0.8190   0.8190   0.8376   0.8376   0.8653   0.8653   0.9601   0.9601
  0:      0.9846   0.9846   1.0468   1.0468   1.1676   1.1676   1.2019   1.2019
  0:      1.3929   1.3929   1.4187   1.4187   1.7439   1.7439   1.7777   1.7777
  0:      5.1451   5.1451   5.2300   5.2300   6.0502   6.0502   6.1511   6.1511
  0:      6.5432   6.5432   6.5748   6.5748   6.8459   6.8459   6.8685   6.8685
  0:      7.7991   7.7991   7.8053   7.8053   8.5932   8.5932   8.6144   8.6144
  0:      8.8907   8.8907   8.9145   8.9145   9.1982   9.1982   9.2061   9.2061
  0:      9.4631   9.4631   9.4842   9.4842   9.6617   9.6617   9.6871   9.6871
  0:      9.9695   9.9695  10.0069  10.0069  10.0740  10.0740  10.1150  10.1150
  0:     10.3593  10.3593  10.3783  10.3783  10.5521  10.5521  10.5623  10.5623
  0:     10.8127  10.8127  10.8319  10.8319  10.9926  10.9926  11.0272  11.0272
  0: 
  0:           k = 0.0277 0.4709 0.0000 ( 52542 PWs)   bands (ev):
  0: 
  0:    -17.1645 -17.1645 -17.1645 -17.1645 -15.0192 -15.0192 -15.0187 -15.0187
  0:    -14.9968 -14.9968 -14.9960 -14.9960 -13.2805 -13.2805 -13.2803 -13.2803
  0:    -12.5420 -12.5420 -12.5311 -12.5311 -12.5033 -12.5033 -12.4927 -12.4927
  0:    -12.4134 -12.4134 -12.4126 -12.4126 -11.8989 -11.8989 -11.8985 -11.8985
  0:    -11.4788 -11.4788 -11.4783 -11.4783 -11.0833 -11.0833 -11.0710 -11.0710
  0:    -11.0219 -11.0219 -11.0092 -11.0092  -9.4065  -9.4065  -9.4065  -9.4065
  0:     -7.8331  -7.8331  -7.8330  -7.8330  -6.5474  -6.5474  -6.5473  -6.5473
  0:     -6.2961  -6.2961  -6.2960  -6.2960  -4.8920  -4.8920  -4.8915  -4.8915
  0:     -4.7562  -4.7562  -4.7556  -4.7556  -3.5811  -3.5811  -3.5759  -3.5759
  0:     -2.8709  -2.8709  -2.8696  -2.8696  -2.7343  -2.7343  -2.7337  -2.7337
  0:     -2.1452  -2.1452  -2.1449  -2.1449  -1.4488  -1.4488  -1.4438  -1.4438
  0:     -1.3460  -1.3460  -1.3362  -1.3362  -0.4689  -0.4689  -0.4639  -0.4639
  0:     -0.2279  -0.2279  -0.2124  -0.2124  -0.0792  -0.0792  -0.0737  -0.0737
  0:      0.5222   0.5222   0.5563   0.5563   0.5709   0.5709   0.6665   0.6665
  0:      0.8239   0.8239   0.8340   0.8340   0.8665   0.8665   0.9644   0.9644
  0:      0.9809   0.9809   1.0451   1.0451   1.1686   1.1686   1.2000   1.2000
  0:      1.3972   1.3972   1.4203   1.4203   1.7429   1.7429   1.7773   1.7773
  0:      5.1445   5.1445   5.2248   5.2248   6.0515   6.0515   6.1455   6.1455
  0:      6.5417   6.5417   6.5708   6.5708   6.8502   6.8502   6.8645   6.8645
  0:      7.7955   7.7955   7.8007   7.8007   8.5996   8.5996   8.6185   8.6185
  0:      8.8856   8.8856   8.9085   8.9085   9.2074   9.2074   9.2120   9.2120
  0:      9.4603   9.4603   9.4784   9.4784   9.6614   9.6614   9.6861   9.6861
  0:      9.9780   9.9780  10.0115  10.0115  10.0730  10.0730  10.1086  10.1086
  0:     10.3582  10.3582  10.3701  10.3701  10.5721  10.5721  10.5785  10.5785
  0:     10.8058  10.8058  10.8199  10.8199  10.9987  10.9987  11.0166  11.0166
  0: 
  0:           k = 0.0000 0.4709 0.0000 ( 52524 PWs)   bands (ev):
  0: 
  0:    -17.1645 -17.1645 -17.1645 -17.1645 -15.0192 -15.0192 -15.0187 -15.0187
  0:    -14.9968 -14.9968 -14.9960 -14.9960 -13.2805 -13.2805 -13.2803 -13.2803
  0:    -12.5420 -12.5420 -12.5311 -12.5311 -12.5033 -12.5033 -12.4927 -12.4927
  0:    -12.4134 -12.4134 -12.4126 -12.4126 -11.8989 -11.8989 -11.8986 -11.8986
  0:    -11.4789 -11.4789 -11.4785 -11.4785 -11.0830 -11.0830 -11.0708 -11.0708
  0:    -11.0219 -11.0219 -11.0092 -11.0092  -9.4065  -9.4065  -9.4065  -9.4065
  0:     -7.8332  -7.8332  -7.8331  -7.8331  -6.5475  -6.5475  -6.5474  -6.5474
  0:     -6.2962  -6.2962  -6.2961  -6.2961  -4.8921  -4.8921  -4.8917  -4.8917
  0:     -4.7562  -4.7562  -4.7556  -4.7556  -3.5811  -3.5811  -3.5759  -3.5759
  0:     -2.8709  -2.8709  -2.8697  -2.8697  -2.7342  -2.7342  -2.7336  -2.7336
  0:     -2.1451  -2.1451  -2.1449  -2.1449  -1.4483  -1.4483  -1.4435  -1.4435
  0:     -1.3454  -1.3454  -1.3356  -1.3356  -0.4689  -0.4689  -0.4641  -0.4641
  0:     -0.2275  -0.2275  -0.2129  -0.2129  -0.0781  -0.0781  -0.0755  -0.0755
  0:      0.5241   0.5241   0.5585   0.5585   0.5670   0.5670   0.6657   0.6657
  0:      0.8272   0.8272   0.8311   0.8311   0.8671   0.8671   0.9664   0.9664
  0:      0.9792   0.9792   1.0445   1.0445   1.1689   1.1689   1.1993   1.1993
  0:      1.3986   1.3986   1.4209   1.4209   1.7425   1.7425   1.7772   1.7772
  0:      5.1443   5.1443   5.2230   5.2230   6.0521   6.0521   6.1434   6.1434
  0:      6.5412   6.5412   6.5695   6.5695   6.8526   6.8526   6.8622   6.8622
  0:      7.7943   7.7943   7.7992   7.7992   8.6019   8.6019   8.6200   8.6200
  0:      8.8838   8.8838   8.9063   8.9063   9.2116   9.2116   9.2130   9.2130
  0:      9.4596   9.4596   9.4761   9.4761   9.6614   9.6614   9.6857   9.6857
  0:      9.9812   9.9812  10.0124  10.0124  10.0732  10.0732  10.1060  10.1060
  0:     10.3585  10.3585  10.3669  10.3669  10.5819  10.5819  10.5822  10.5822
  0:     10.8036  10.8036  10.8145  10.8145  11.0066  11.0066  11.0070  11.0070
  0: 
  0:      Writing all to output data dir ./tmp/iba_pbbr3.save/ :
  0:      XML data file, pseudopotentials, collected wavefunctions
  0: 
  0:      init_run     :      0.71s CPU      1.02s WALL (       1 calls)
  0:      electrons    :   1579.96s CPU   1871.82s WALL (       1 calls)
  0: 
  0:      Called by init_run:
  0:      wfcinit      :      0.00s CPU      0.03s WALL (       1 calls)
  0:      wfcinit:atom :      0.17s CPU      0.41s WALL (      44 calls)
  0:      wfcinit:wfcr :     24.07s CPU     27.56s WALL (      44 calls)
  0:      potinit      :      0.03s CPU      0.07s WALL (       1 calls)
  0:      hinit0       :      0.55s CPU      0.75s WALL (       1 calls)
  0: 
  0:      Called by electrons:
  0:      c_bands      :   1579.94s CPU   1871.78s WALL (       1 calls)
  0:      v_of_rho     :      0.02s CPU      0.03s WALL (       1 calls)
  0:      v_h          :      0.00s CPU      0.00s WALL (       1 calls)
  0:      v_xc         :      0.02s CPU      0.03s WALL (       1 calls)
  0: 
  0:      Called by c_bands:
  0:      init_us_2    :      0.69s CPU      0.73s WALL (      44 calls)
  0:      cegterg      :   1507.98s CPU   1739.69s WALL (     237 calls)
  0: 
  0:      Called by sum_band:
  0: 
  0:      Called by *egterg:
  0:      cdiaghg      :    135.95s CPU    247.53s WALL (    4422 calls)
  0:      cegterg:over :    180.72s CPU    188.03s WALL (    4378 calls)
  0:      cegterg:upda :    134.73s CPU    141.08s WALL (    4378 calls)
  0:      cegterg:last :    212.16s CPU    224.09s WALL (    1690 calls)
  0:      cdiaghg:chol :      4.23s CPU     13.00s WALL (    4422 calls)
  0:      cdiaghg:inve :      2.78s CPU      3.01s WALL (    4422 calls)
  0:      cdiaghg:para :     32.88s CPU     43.96s WALL (    8844 calls)
  0:      h_psi        :    837.31s CPU    930.18s WALL (    4659 calls)
  0:      g_psi        :      6.47s CPU      6.61s WALL (    4378 calls)
  0: 
  0:      Called by h_psi:
  0:      h_psi:calbec :    173.92s CPU    184.67s WALL (    4659 calls)
  0:      vloc_psi     :    463.19s CPU    540.82s WALL (    4659 calls)
  0:      add_vuspsi   :    189.02s CPU    191.46s WALL (    4659 calls)
  0: 
  0:      General routines
  0:      calbec       :    173.89s CPU    184.64s WALL (    4659 calls)
  0:      fft          :      0.53s CPU      0.72s WALL (      14 calls)
  0:      fftw         :    401.11s CPU    469.12s WALL ( 1420180 calls)
  0:      davcio       :      0.01s CPU      1.25s WALL (      88 calls)
  0: 
  0:      Parallel routines
  0: 
  0:      PWSCF        :  26m28.12s CPU  32m11.11s WALL
  0: 
  0: 
  0:    This run was terminated on:   0:20:56  18Sep2025            
  0: 
  0: =------------------------------------------------------------------------------=
  0:    JOB DONE.
  0: =------------------------------------------------------------------------------=
